130
Lattice="0.0 0.0 -3.52 2e-16 -3.9354796403996297 1.7600000000000007 -102.32247065039037 0.0 -6.3e-15" Properties=species:S:1:pos:R:3:frame_label:S:1 pbc="T T T"
Ni    -100.68421613      -3.12817769      -0.00000000 random
Ni     -92.83912035      -3.15220828      -0.00000000 random
Ni     -85.08944627      -3.14675678      -0.00000000 random
Ni     -97.49635799      -1.56976201      -0.00000000 random
Ni     -89.74084859      -1.57280813      -0.00000000 random
Ni     -82.01308271      -1.56713148      -0.00000000 random
Ni    -102.32334456      -0.01198342      -0.00000000 random
Cr     -94.38747173      -0.00509226      -0.00000000 random
Mo     -86.64459173       0.00509226      -0.00000000 random
Ni     -99.01898075      -2.36834816      -1.76000000 random
Ni     -91.29121487      -2.36267151      -1.76000000 random
Ni     -83.53570547      -2.36571763      -1.76000000 random
Ni     -95.94261719      -0.78872286      -1.76000000 random
Ni     -88.19294311      -0.78327136      -1.76000000 random
Ni     -80.34784733      -0.80730195      -1.76000000 random
Ni     -98.28548225       0.00638148      -1.76000000 random
Ni     -90.51603173       0.00000000      -1.76000000 random
Fe     -82.74658121      -0.00638148      -1.76000000 random
Ni     -95.16397428      -2.36492959      -0.00000000 random
Ni     -87.41715697      -2.35689535      -0.00000000 random
Mo     -79.80510840      -2.38181110      -0.00000000 random
Ni     -99.83824749      -0.74628196      -0.00000000 random
Ni     -92.06429434      -0.79030318      -0.00000000 random
Ni     -84.32128036      -0.78349434      -0.00000000 random
Ni     -96.71078310      -3.15198530      -1.76000000 random
Ni     -88.96776911      -3.14517646      -1.76000000 random
Mo     -81.19381597      -3.18919768      -1.76000000 random
Ni    -101.22695506      -1.55366854      -1.76000000 random
Ni     -93.61490649      -1.57858429      -1.76000000 random
Ni     -85.86808917      -1.57055005      -1.76000000 random
Ni     -77.06870959      -0.80694054      -1.76000000 random
Cr     -69.19580674      -0.77997460      -1.76000000 random
Ni     -61.38003842      -0.78579651      -1.76000000 random
Ni     -53.52214389      -0.78706552      -1.76000000 random
Ni     -45.65156116      -0.78709580      -1.76000000 random
Ni     -37.78060477      -0.78709594      -1.76000000 random
Ni     -29.90966339      -0.78709706      -1.76000000 random
Ni     -22.04074162      -0.78727425      -1.76000000 random
Ni     -14.19773857      -0.79019384      -1.76000000 random
Ni      -6.39440802      -0.79036345      -1.76000000 random
Ni     -73.87450081      -2.36470172      -1.76000000 random
Mo     -66.07520422      -2.35684258      -1.76000000 random
Cr     -58.24089081      -2.36090943      -1.76000000 random
Ni     -50.37408761      -2.36128415      -1.76000000 random
Ni     -42.50317956      -2.36128776      -1.76000000 random
Ni     -34.63222203      -2.36128784      -1.76000000 random
Ni     -26.76140607      -2.36129878      -1.76000000 random
Ni     -18.89818089      -2.36202534      -1.76000000 random
Ni     -11.07228666      -2.36721621      -1.76000000 random
Ni      -3.30869562      -2.36886856      -1.76000000 random
Cr     -78.70871890       0.01198342      -0.00000000 random
Ni     -70.75281085       0.00748857      -0.00000000 random
Ni     -62.94670336       0.00210653      -0.00000000 random
Ni     -55.09579383       0.00007700      -0.00000000 random
Cr     -47.22574908       0.00000036      -0.00000000 random
Mo     -39.35479640       0.00000000      -0.00000000 random
Ni     -31.48384373      -0.00000036      -0.00000000 random
Ni     -23.61379897      -0.00007700      -0.00000000 random
Ni     -15.76288945      -0.00210653      -0.00000000 random
Ni      -7.95678196      -0.00748857      -0.00000000 random
Mo     -75.40089718      -1.56661108      -0.00000000 random
Ni     -67.63730615      -1.56826343      -0.00000000 random
Ni     -59.81141192      -1.57345430      -0.00000000 random
Ni     -51.94818674      -1.57418086      -0.00000000 random
Ni     -44.07737078      -1.57419180      -0.00000000 random
Ni     -36.20641324      -1.57419188      -0.00000000 random
Cr     -28.33550520      -1.57419549      -0.00000000 random
Mo     -20.46870199      -1.57457021      -0.00000000 random
Fe     -12.63438859      -1.57863706      -0.00000000 random
Ni      -4.83509200      -1.57077792      -0.00000000 random
Ni     -72.31518479      -3.14511619      -0.00000000 random
Ni     -64.51185424      -3.14528580      -0.00000000 random
Cr     -56.66885119      -3.14820539      -0.00000000 random
Ni     -48.79992942      -3.14838258      -0.00000000 random
Mo     -40.92898804      -3.14838370      -0.00000000 random
Ni     -33.05803165      -3.14838384      -0.00000000 random
Ni     -25.18744892      -3.14841412      -0.00000000 random
Ni     -17.32955438      -3.14968313      -0.00000000 random
Ni      -9.51378607      -3.15550504      -0.00000000 random
Ni      -1.64088322      -3.12853910      -0.00000000 random
Cr     -74.66571632      -0.00561005      -1.76000000 random
Ni     -66.85646447       0.00497554      -1.76000000 random
Ni     -59.02637329       0.00053323      -1.76000000 random
Ni     -51.16114832       0.00000638      -1.76000000 random
Ni     -43.29027523       0.00000004      -1.76000000 random
Ni     -35.41931758      -0.00000004      -1.76000000 random
Ni     -27.54844449      -0.00000638      -1.76000000 random
Ni     -19.68321952      -0.00053323      -1.76000000 random
Ni     -11.85312834      -0.00497554      -1.76000000 random
Ni      -4.04387649       0.00561005      -1.76000000 random
Ni     -71.53308978      -1.56854538      -1.76000000 random
Ni     -63.72944384      -1.57161596      -1.76000000 random
Mo     -55.88242044      -1.57407356      -1.76000000 random
Mo     -48.01284078      -1.57419122      -1.76000000 random
Ni     -40.14189223      -1.57419185      -1.76000000 random
Ni     -32.27093718      -1.57419207      -1.76000000 random
Ni     -24.40057094      -1.57424087      -1.76000000 random
Ni     -16.54598334      -1.57587304      -1.76000000 random
Mo      -8.73356633      -1.58145705      -1.76000000 random
Ni      -1.09856287      -1.55406655      -1.76000000 random
Cr     -76.22147516      -3.18885388      -1.76000000 random
Ni     -68.41614100      -3.14135486      -1.76000000 random
Fe     -60.59596359      -3.14739015      -1.76000000 random
Ni     -52.73519090      -3.14836521      -1.76000000 random
Fe     -44.86446613      -3.14838363      -1.76000000 random
Cr     -36.99350898      -3.14838373      -1.76000000 random
Ni     -29.12257996      -3.14838575      -1.76000000 random
Ni     -21.25456414      -3.14864630      -1.76000000 random
Mo     -13.41571760      -3.15208440      -1.76000000 random
Ni      -5.62315349      -3.15323213      -1.76000000 random
Ni     -73.08643932      -0.78224751      -0.00000000 random
Mo     -65.29387520      -0.78339524      -0.00000000 random
Ni     -57.45502866      -0.78683334      -0.00000000 random
Fe     -49.58701285      -0.78709389      -0.00000000 random
Ni     -41.71608383      -0.78709591      -0.00000000 random
Ni     -33.84512668      -0.78709601      -0.00000000 random
Ni     -25.97440190      -0.78711443      -0.00000000 random
Ni     -18.11362921      -0.78808949      -0.00000000 random
Ni     -10.29345181      -0.79412478      -0.00000000 random
Ni      -2.48811765      -0.74662576      -0.00000000 random
Ni     -77.61102994      -2.38141309      -0.00000000 random
Ni     -69.97602648      -2.35402259      -0.00000000 random
Ni     -62.16360947      -2.35960660      -0.00000000 random
Ni     -54.30902187      -2.36123877      -0.00000000 random
Ni     -46.43865562      -2.36128757      -0.00000000 random
Ni     -38.56770058      -2.36128779      -0.00000000 random
Ni     -30.69675203      -2.36128842      -0.00000000 random
Ni     -22.82717237      -2.36140608      -0.00000000 random
Ni     -14.98014897      -2.36386368      -0.00000000 random
Ni      -7.17650302      -2.36693426      -0.00000000 random
130
Lattice="0.0 0.0 -3.52 2e-16 -3.9354796403996297 1.7600000000000007 -102.32247065039037 0.0 -6.3e-15" Properties=species:S:1:pos:R:3:frame_label:S:1 pbc="T T T"
Ni    -100.84564340      -2.98702076      -0.00000000 snap500
Ni     -92.98024353      -3.04519376      -0.00000000 snap500
Mo     -85.29946223      -3.07628258      -0.00000000 snap500
Cr     -97.75910787      -1.50305711      -0.00000000 snap500
Ni     -89.90655591      -1.51772933      -0.00000000 snap500
Ni     -82.04814883      -1.36203803      -0.00000000 snap500
Mo    -102.49757531       0.04016973      -0.00000000 snap500
Mo     -94.59061812       0.06861979      -0.00000000 snap500
Ni     -86.87125776       0.04498856      -0.00000000 snap500
Ni     -99.20967891      -2.25867659      -1.76000000 snap500
Ni     -91.44163910      -2.27970032      -1.76000000 snap500
Ni     -83.66050962      -2.24382308      -1.76000000 snap500
Ni     -96.21426481      -0.74439560      -1.76000000 snap500
Ni     -88.39515034      -0.73058160      -1.76000000 snap500
Mo     -80.34907805      -0.49944241      -1.76000000 snap500
Ni     -98.51498663       0.09820637      -1.76000000 snap500
Ni     -90.70318138       0.07864257      -1.76000000 snap500
Ni     -82.83725508       0.16381801      -1.76000000 snap500
Ni     -95.42491173      -2.29979352      -0.00000000 snap500
Ni     -87.60875926      -2.32103591      -0.00000000 snap500
Ni     -79.65727796      -1.99610288      -0.00000000 snap500
Ni    -100.01437929      -0.61084110      -0.00000000 snap500
Ni     -92.19104161      -0.68890708      -0.00000000 snap500
Ni     -84.47148095      -0.69415505      -0.00000000 snap500
Ni     -96.99160943      -3.09005689      -1.76000000 snap500
Cr     -89.15903480      -3.08176890      -1.76000000 snap500
Ni     -81.22317712      -2.90562004      -1.76000000 snap500
Ni    -101.38119164      -1.44125736      -1.76000000 snap500
Ni     -93.77738348      -1.49396442      -1.76000000 snap500
Ni     -86.10512484      -1.54801783      -1.76000000 snap500
Mo     -77.49318335      -1.15151064      -1.76000000 snap500
Ni     -69.09778703      -0.96419262      -1.76000000 snap500
Ni     -61.18534275      -0.82893097      -1.76000000 snap500
Ni     -53.27615607      -0.76829503      -1.76000000 snap500
Ni     -45.42256560      -0.80453579      -1.76000000 snap500
Ni     -37.55970168      -0.86284389      -1.76000000 snap500
Fe     -29.87267631      -0.79456333      -1.76000000 snap500
Ni     -22.18149731      -0.74744742      -1.76000000 snap500
Mo     -14.38579540      -0.74195880      -1.76000000 snap500
Ni      -6.43052154      -0.80375155      -1.76000000 snap500
Mo     -73.80784371      -2.64544294      -1.76000000 snap500
Ni     -66.03672129      -2.43063533      -1.76000000 snap500
Ni     -58.12384265      -2.33924231      -1.76000000 snap500
Cr     -50.23227602      -2.31384632      -1.76000000 snap500
Cr     -42.36628390      -2.36321632      -1.76000000 snap500
Ni     -34.47199912      -2.41236759      -1.76000000 snap500
Ni     -26.79546237      -2.35167862      -1.76000000 snap500
Ni     -18.95055951      -2.34363861      -1.76000000 snap500
Ni     -11.13403432      -2.39570849      -1.76000000 snap500
Cr      -3.45558890      -2.30605566      -1.76000000 snap500
Ni     -78.79365781       0.29971174      -0.00000000 snap500
Ni     -70.64957136      -0.23732020      -0.00000000 snap500
Ni     -62.76180591      -0.04387751      -0.00000000 snap500
Ni     -54.86925510       0.02021205      -0.00000000 snap500
Ni     -47.00214895      -0.00131504      -0.00000000 snap500
Ni     -39.18515398      -0.03906647      -0.00000000 snap500
Ni     -31.39407173      -0.02704429      -0.00000000 snap500
Ni     -23.74840517       0.04656844      -0.00000000 snap500
Ni     -15.94371074       0.05979383      -0.00000000 snap500
Ni      -7.94926869      -0.05483526      -0.00000000 snap500
Ni     -75.40144668      -1.81881334      -0.00000000 snap500
Cr     -67.54501648      -1.69791287      -0.00000000 snap500
Cr     -59.65910080      -1.58551363      -0.00000000 snap500
Ni     -51.75103494      -1.53714977      -0.00000000 snap500
Ni     -43.89943498      -1.58514388      -0.00000000 snap500
Ni     -36.00413848      -1.63924821      -0.00000000 snap500
Ni     -28.32575978      -1.57781168      -0.00000000 snap500
Ni     -20.53143158      -1.55467105      -0.00000000 snap500
Ni     -12.75290981      -1.55762250      -0.00000000 snap500
Ni      -4.90287624      -1.55186419      -0.00000000 snap500
Ni     -72.17230497      -3.44886009      -0.00000000 snap500
Ni     -64.43247005      -3.19839093      -0.00000000 snap500
Mo     -56.53058007      -3.11762362      -0.00000000 snap500
Ni     -48.66019610      -3.12135129      -0.00000000 snap500
Ni     -40.80485346      -3.14538724      -0.00000000 snap500
Fe     -32.91923687      -3.19616303      -0.00000000 snap500
Ni     -25.27430572      -3.11816379      -0.00000000 snap500
Ni     -17.44757787      -3.11211201      -0.00000000 snap500
Ni      -9.50841372      -3.20732224      -0.00000000 snap500
Ni      -1.83300477      -3.02649957      -0.00000000 snap500
Ni     -74.66424024      -0.28639851      -1.76000000 snap500
Ni     -66.79638641      -0.09729461      -1.76000000 snap500
Ni     -58.89572280       0.01958983      -1.76000000 snap500
Ni     -50.99017096       0.04768402      -1.76000000 snap500
Ni     -43.13313331      -0.00621237      -1.76000000 snap500
Cr     -35.23873483      -0.05862966      -1.76000000 snap500
Ni     -27.56113568       0.00541197      -1.76000000 snap500
Mo     -19.74107966      -0.00063122      -1.76000000 snap500
Ni     -11.94319348      -0.00774691      -1.76000000 snap500
Ni      -4.15115495       0.05354666      -1.76000000 snap500
Ni     -71.39836096      -1.83561158      -1.76000000 snap500
Mo     -63.61037453      -1.61889970      -1.76000000 snap500
Ni     -55.69952457      -1.54834842      -1.76000000 snap500
Ni     -47.82254342      -1.56242020      -1.76000000 snap500
Ni     -40.01214487      -1.59814377      -1.76000000 snap500
Ni     -32.15717614      -1.60672709      -1.76000000 snap500
Ni     -24.50945552      -1.53592278      -1.76000000 snap500
Ni     -16.68837291      -1.51874040      -1.76000000 snap500
Ni      -8.71746003      -1.65123655      -1.76000000 snap500
Ni      -1.29009934      -1.47851817      -1.76000000 snap500
Ni     -76.20479447      -3.48623814      -1.76000000 snap500
Ni     -68.34085084      -3.31193769      -1.76000000 snap500
Ni     -60.41771365      -3.17995880      -1.76000000 snap500
Cr     -52.50993293      -3.13674987      -1.76000000 snap500
Ni     -44.65729742      -3.16694191      -1.76000000 snap500
Ni     -36.77321177      -3.21789464      -1.76000000 snap500
Ni     -29.10653586      -3.16217113      -1.76000000 snap500
Ni     -21.35970567      -3.12037925      -1.76000000 snap500
Ni     -13.56015746      -3.11358900      -1.76000000 snap500
Ni      -5.67063488      -3.14656288      -1.76000000 snap500
Ni     -72.97807968      -1.06368429      -0.00000000 snap500
Ni     -65.23682706      -0.83030015      -0.00000000 snap500
Ni     -57.32591428      -0.74395867      -0.00000000 snap500
Ni     -49.46042809      -0.72164054      -0.00000000 snap500
Ni     -41.59472766      -0.79044403      -0.00000000 snap500
Ni     -33.68705884      -0.82781173      -0.00000000 snap500
Fe     -26.03827671      -0.76812926      -0.00000000 snap500
Ni     -18.19900460      -0.77171076      -0.00000000 snap500
Mo     -10.32715056      -0.83743836      -0.00000000 snap500
Ni      -2.64871205      -0.65454599      -0.00000000 snap500
Ni     -77.51880475      -2.72161624      -0.00000000 snap500
Fe     -69.86535418      -2.55920530      -0.00000000 snap500
Ni     -61.95305616      -2.43375858      -0.00000000 snap500
Ni     -54.07375523      -2.35639380      -0.00000000 snap500
Mo     -46.20692817      -2.38615612      -0.00000000 snap500
Mo     -38.35479304      -2.41399085      -0.00000000 snap500
Ni     -30.63157723      -2.38502084      -0.00000000 snap500
Fe     -22.96856440      -2.30068461      -0.00000000 snap500
Ni     -15.18356225      -2.28168361      -0.00000000 snap500
Cr      -7.18524249      -2.39941783      -0.00000000 snap500
130
Lattice="0.0 0.0 -3.52 2e-16 -3.9354796403996297 1.7600000000000007 -102.32247065039037 0.0 -6.3e-15" Properties=species:S:1:pos:R:3:frame_label:S:1 pbc="T T T"
Ni    -100.88329709      -3.00269316      -0.00000000 snap1000
Ni     -93.02561743      -3.07216087      -0.00000000 snap1000
Ni     -85.11837172      -3.00576742      -0.00000000 snap1000
Ni     -97.77337002      -1.48079340      -0.00000000 snap1000
Ni     -89.92175165      -1.50942000      -0.00000000 snap1000
Ni     -82.04752845      -1.37323746      -0.00000000 snap1000
Mo    -102.54033138       0.00950873      -0.00000000 snap1000
Ni     -94.67224872       0.06299070      -0.00000000 snap1000
Ni     -86.68773420       0.10772194      -0.00000000 snap1000
Cr     -99.23192820      -2.25471128      -1.76000000 snap1000
Ni     -91.44215086      -2.27773680      -1.76000000 snap1000
Ni     -83.60753169      -2.20221053      -1.76000000 snap1000
Ni     -96.24360563      -0.72449631      -1.76000000 snap1000
Ni     -88.34615256      -0.71262059      -1.76000000 snap1000
Ni     -80.33785727      -0.52728134      -1.76000000 snap1000
Ni     -98.54222240       0.11831174      -1.76000000 snap1000
Ni     -90.68162310       0.07511896      -1.76000000 snap1000
Ni     -82.82140885       0.14950020      -1.76000000 snap1000
Fe     -95.46147845      -2.32110118      -0.00000000 snap1000
Mo     -87.52672057      -2.27189499      -0.00000000 snap1000
Ni     -79.63783973      -2.02802447      -0.00000000 snap1000
Ni    -100.04935282      -0.62193636      -0.00000000 snap1000
Ni     -92.22844898      -0.68141326      -0.00000000 snap1000
Cr     -84.36368324      -0.63345755      -0.00000000 snap1000
Ni     -96.99796786      -3.07124927      -1.76000000 snap1000
Ni     -89.13504143      -3.09888811      -1.76000000 snap1000
Mo     -81.20288336      -2.92826760      -1.76000000 snap1000
Ni    -101.41864441      -1.45931489      -1.76000000 snap1000
Mo     -93.83676727      -1.50370770      -1.76000000 snap1000
Ni     -85.89767639      -1.42072957      -1.76000000 snap1000
Mo     -77.41379290      -1.18510606      -1.76000000 snap1000
Ni     -69.09316654      -0.96561162      -1.76000000 snap1000
Ni     -61.21736416      -0.85066990      -1.76000000 snap1000
Ni     -53.32206032      -0.79650027      -1.76000000 snap1000
Ni     -45.43696131      -0.80537181      -1.76000000 snap1000
Ni     -37.58847405      -0.84084712      -1.76000000 snap1000
Ni     -29.80219772      -0.82019909      -1.76000000 snap1000
Mo     -22.06229197      -0.76526070      -1.76000000 snap1000
Ni     -14.36143742      -0.74291445      -1.76000000 snap1000
Ni      -6.52153177      -0.77206330      -1.76000000 snap1000
Ni     -73.81489236      -2.63754930      -1.76000000 snap1000
Ni     -66.01527944      -2.44678817      -1.76000000 snap1000
Ni     -58.11971687      -2.33759829      -1.76000000 snap1000
Ni     -50.25087890      -2.32556876      -1.76000000 snap1000
Ni     -42.38720205      -2.35255615      -1.76000000 snap1000
Fe     -34.54700615      -2.39343067      -1.76000000 snap1000
Ni     -26.70842235      -2.38533214      -1.76000000 snap1000
Ni     -18.89888949      -2.36290686      -1.76000000 snap1000
Mo     -11.20371135      -2.35693093      -1.76000000 snap1000
Cr      -3.52209849      -2.29944024      -1.76000000 snap1000
Ni     -78.76239032       0.26555367      -0.00000000 snap1000
Cr     -70.56274524      -0.21399544      -0.00000000 snap1000
Mo     -62.84719494      -0.04926691      -0.00000000 snap1000
Ni     -54.86194551      -0.03249141      -0.00000000 snap1000
Ni     -47.00214858      -0.03498238      -0.00000000 snap1000
Ni     -39.15060913      -0.03284025      -0.00000000 snap1000
Ni     -31.44391239      -0.01537415      -0.00000000 snap1000
Ni     -23.68864686       0.06876264      -0.00000000 snap1000
Ni     -15.89677459       0.04835859      -0.00000000 snap1000
Ni      -8.04918625      -0.00966135      -0.00000000 snap1000
Ni     -75.38504444      -1.85387328      -0.00000000 snap1000
Ni     -67.55460988      -1.71078623      -0.00000000 snap1000
Fe     -59.66899378      -1.59039850      -0.00000000 snap1000
Ni     -51.79438279      -1.56153815      -0.00000000 snap1000
Fe     -43.92208107      -1.57481170      -0.00000000 snap1000
Ni     -36.07056722      -1.61371575      -0.00000000 snap1000
Ni     -28.23195583      -1.61626218      -0.00000000 snap1000
Ni     -20.45134858      -1.58415376      -0.00000000 snap1000
Ni     -12.82011182      -1.52854591      -0.00000000 snap1000
Ni      -4.99676967      -1.53509385      -0.00000000 snap1000
Ni     -72.16205858      -3.40629854      -0.00000000 snap1000
Ni     -64.46419447      -3.18680042      -0.00000000 snap1000
Mo     -56.48721617      -3.15227729      -0.00000000 snap1000
Mo     -48.62786093      -3.14675949      -0.00000000 snap1000
Ni     -40.81156609      -3.15389344      -0.00000000 snap1000
Ni     -33.01167148      -3.16209223      -0.00000000 snap1000
Cr     -25.21615735      -3.12221144      -0.00000000 snap1000
Cr     -17.38963453      -3.11169887      -0.00000000 snap1000
Ni      -9.58521889      -3.17973469      -0.00000000 snap1000
Ni      -1.87990996      -3.03921724      -0.00000000 snap1000
Ni     -74.64712211      -0.27080149      -1.76000000 snap1000
Fe     -66.78964916      -0.11163982      -1.76000000 snap1000
Ni     -58.90149148       0.00588812      -1.76000000 snap1000
Ni     -51.04562548       0.02724602      -1.76000000 snap1000
Cr     -43.15946256       0.00949248      -1.76000000 snap1000
Ni     -35.31317933      -0.02869939      -1.76000000 snap1000
Ni     -27.45842622      -0.02913308      -1.76000000 snap1000
Ni     -19.65780892       0.00470865      -1.76000000 snap1000
Ni     -12.03013457       0.01811085      -1.76000000 snap1000
Ni      -4.21997062       0.06804377      -1.76000000 snap1000
Ni     -71.38060466      -1.83369030      -1.76000000 snap1000
Ni     -63.66696360      -1.62261371      -1.76000000 snap1000
Ni     -55.67222668      -1.58673336      -1.76000000 snap1000
Ni     -47.79338911      -1.58533147      -1.76000000 snap1000
Mo     -39.98487777      -1.59451204      -1.76000000 snap1000
Ni     -32.22873717      -1.56894342      -1.76000000 snap1000
Ni     -24.45311111      -1.52948619      -1.76000000 snap1000
Ni     -16.64165577      -1.53671644      -1.76000000 snap1000
Ni      -8.79546490      -1.59706145      -1.76000000 snap1000
Ni      -1.33442323      -1.49469340      -1.76000000 snap1000
Ni     -76.16413436      -3.51494600      -1.76000000 snap1000
Ni     -68.31519410      -3.30431686      -1.76000000 snap1000
Ni     -60.43519911      -3.18859760      -1.76000000 snap1000
Cr     -52.55619256      -3.14635193      -1.76000000 snap1000
Ni     -44.68060919      -3.16601131      -1.76000000 snap1000
Cr     -36.82519274      -3.19621279      -1.76000000 snap1000
Ni     -29.01318357      -3.20638655      -1.76000000 snap1000
Ni     -21.24252061      -3.13782396      -1.76000000 snap1000
Ni     -13.60076503      -3.10545832      -1.76000000 snap1000
Ni      -5.77682678      -3.11644515      -1.76000000 snap1000
Mo     -73.00498684      -1.05331073      -0.00000000 snap1000
Ni     -65.25167335      -0.85361445      -0.00000000 snap1000
Ni     -57.32646836      -0.78169375      -0.00000000 snap1000
Ni     -49.44927304      -0.77249857      -0.00000000 snap1000
Ni     -41.60946909      -0.75981379      -0.00000000 snap1000
Ni     -33.77730993      -0.80660671      -0.00000000 snap1000
Ni     -25.95378371      -0.78052138      -0.00000000 snap1000
Ni     -18.15373258      -0.76684487      -0.00000000 snap1000
Ni     -10.38573285      -0.79557037      -0.00000000 snap1000
Ni      -2.70741185      -0.66319178      -0.00000000 snap1000
Ni     -77.49640802      -2.75869857      -0.00000000 snap1000
Ni     -69.84769635      -2.56591188      -0.00000000 snap1000
Ni     -62.01332966      -2.41207597      -0.00000000 snap1000
Ni     -54.06955020      -2.38356483      -0.00000000 snap1000
Ni     -46.21888383      -2.38849274      -0.00000000 snap1000
Ni     -38.35783511      -2.43032231      -0.00000000 snap1000
Mo     -30.62244942      -2.38505009      -0.00000000 snap1000
Ni     -22.89693979      -2.32663694      -0.00000000 snap1000
Ni     -15.13507915      -2.32284333      -0.00000000 snap1000
Cr      -7.29415327      -2.35985450      -0.00000000 snap1000
130
Lattice="0.0 0.0 -3.52 2e-16 -3.9354796403996297 1.7600000000000007 -102.32247065039037 0.0 -6.3e-15" Properties=species:S:1:pos:R:3:frame_label:S:1 pbc="T T T"
Ni    -100.86720883      -3.00932910      -0.00000000 final
Fe     -92.95015591      -3.06588367      -0.00000000 final
Ni     -85.23700095      -3.02832849      -0.00000000 final
Ni     -97.74373939      -1.49564099      -0.00000000 final
Ni     -89.84958508      -1.46197037      -0.00000000 final
Ni     -82.00255488      -1.36609765      -0.00000000 final
Mo    -102.53311403       0.00890399      -0.00000000 final
Ni     -94.60958000       0.06445434      -0.00000000 final
Ni     -86.76805172       0.10822518      -0.00000000 final
Ni     -99.21040522      -2.26471835      -1.76000000 final
Ni     -91.37510347      -2.25758971      -1.76000000 final
Ni     -83.63843408      -2.19890007      -1.76000000 final
Ni     -96.20174196      -0.72551447      -1.76000000 final
Ni     -88.30287663      -0.67305107      -1.76000000 final
Ni     -80.33719938      -0.58681325      -1.76000000 final
Cr     -98.51911664       0.10548506      -1.76000000 final
Ni     -90.60763703       0.10886483      -1.76000000 final
Ni     -82.80634991       0.18459807      -1.76000000 final
Fe     -95.41379531      -2.31603117      -0.00000000 final
Ni     -87.53688711      -2.25638260      -0.00000000 final
Cr     -79.76019907      -2.09708144      -0.00000000 final
Ni    -100.02895699      -0.63215849      -0.00000000 final
Ni     -92.14920475      -0.66911565      -0.00000000 final
Mo     -84.45051911      -0.65682496      -0.00000000 final
Ni     -96.97353699      -3.08048508      -1.76000000 final
Cr     -89.07289095      -3.04859134      -1.76000000 final
Ni     -81.15908977      -2.92722676      -1.76000000 final
Ni    -101.40768917      -1.46439299      -1.76000000 final
Mo     -93.79131929      -1.50107273      -1.76000000 final
Ni     -86.00240610      -1.45645063      -1.76000000 final
Mo     -77.29960542      -1.09744844      -1.76000000 final
Ni     -69.10821470      -0.95056843      -1.76000000 final
Cr     -61.21731164      -0.81906621      -1.76000000 final
Ni     -53.36830821      -0.81671687      -1.76000000 final
Cr     -45.54487482      -0.78309461      -1.76000000 final
Ni     -37.50065184      -0.83743991      -1.76000000 final
Ni     -29.93270599      -0.76208671      -1.76000000 final
Ni     -22.14257034      -0.71748858      -1.76000000 final
Ni     -14.32232014      -0.74120041      -1.76000000 final
Ni      -6.51341603      -0.75861979      -1.76000000 final
Ni     -73.86157768      -2.63833330      -1.76000000 final
Ni     -65.91839090      -2.47226581      -1.76000000 final
Ni     -58.14834704      -2.34753216      -1.76000000 final
Ni     -50.34839230      -2.35019806      -1.76000000 final
Ni     -42.33537924      -2.36274432      -1.76000000 final
Cr     -34.47174672      -2.37901348      -1.76000000 final
Ni     -26.71480887      -2.40490495      -1.76000000 final
Ni     -18.89103067      -2.39215884      -1.76000000 final
Mo     -11.17676975      -2.33815955      -1.76000000 final
Ni      -3.52076267      -2.29483045      -1.76000000 final
Ni     -78.80763014       0.17569817      -0.00000000 final
Ni     -70.63250924      -0.22844699      -0.00000000 final
Ni     -62.74801513      -0.07967237      -0.00000000 final
Ni     -54.90862402      -0.05673168      -0.00000000 final
Ni     -47.11278864      -0.00054927      -0.00000000 final
Ni     -39.07425938      -0.05771203      -0.00000000 final
Ni     -31.46434996      -0.00705287      -0.00000000 final
Cr     -23.66487504       0.02369076      -0.00000000 final
Ni     -15.83436993       0.02027653      -0.00000000 final
Ni      -8.03538582       0.00503218      -0.00000000 final
Ni     -75.43117176      -1.83385178      -0.00000000 final
Cr     -67.55229217      -1.67470750      -0.00000000 final
Ni     -59.69400184      -1.57732681      -0.00000000 final
Cr     -51.85150259      -1.57959125      -0.00000000 final
Ni     -43.97743414      -1.56117576      -0.00000000 final
Ni     -35.99068812      -1.60579809      -0.00000000 final
Mo     -28.33001351      -1.58252848      -0.00000000 final
Mo     -20.50564726      -1.55183433      -0.00000000 final
Ni     -12.78524520      -1.50981296      -0.00000000 final
Ni      -4.99463247      -1.52630252      -0.00000000 final
Ni     -72.21372321      -3.41299420      -0.00000000 final
Ni     -64.30033868      -3.27248500      -0.00000000 final
Ni     -56.52078062      -3.16924730      -0.00000000 final
Mo     -48.76235084      -3.13686539      -0.00000000 final
Ni     -40.71126555      -3.18817460      -0.00000000 final
Ni     -32.98642800      -3.17929062      -0.00000000 final
Ni     -25.16761841      -3.17931280      -0.00000000 final
Fe     -17.35457122      -3.15533790      -0.00000000 final
Ni      -9.56445669      -3.16393565      -0.00000000 final
Ni      -1.88058844      -3.03997863      -0.00000000 final
Ni     -74.69363825      -0.26543510      -1.76000000 final
Ni     -66.75107933      -0.11053607      -1.76000000 final
Ni     -58.94076599       0.00923760      -1.76000000 final
Ni     -51.10822299       0.01569607      -1.76000000 final
Mo     -43.14819748       0.01136473      -1.76000000 final
Ni     -35.25227765      -0.02242062      -1.76000000 final
Ni     -27.50112085      -0.02050834      -1.76000000 final
Ni     -19.67566891       0.00107866      -1.76000000 final
Ni     -12.00007853       0.03871402      -1.76000000 final
Fe      -4.21885828       0.07495519      -1.76000000 final
Ni     -71.41907980      -1.83955484      -1.76000000 final
Ni     -63.51449434      -1.67173975      -1.76000000 final
Mo     -55.70685999      -1.60887045      -1.76000000 final
Ni     -47.94539803      -1.57161768      -1.76000000 final
Mo     -39.89496367      -1.62807417      -1.76000000 final
Ni     -32.19780713      -1.59155019      -1.76000000 final
Ni     -24.41876448      -1.57679046      -1.76000000 final
Ni     -16.57893073      -1.56750371      -1.76000000 final
Ni      -8.77775776      -1.58232793      -1.76000000 final
Ni      -1.32936419      -1.49504528      -1.76000000 final
Ni     -76.22797818      -3.45469855      -1.76000000 final
Ni     -68.33167690      -3.27615789      -1.76000000 final
Ni     -60.45876804      -3.16302878      -1.76000000 final
Ni     -52.61705411      -3.17231365      -1.76000000 final
Ni     -44.77136868      -3.12507818      -1.76000000 final
Cr     -36.74312079      -3.19947683      -1.76000000 final
Ni     -29.14438742      -3.14369334      -1.76000000 final
Ni     -21.34377507      -3.11193293      -1.76000000 final
Ni     -13.56285015      -3.09285350      -1.76000000 final
Ni      -5.77167253      -3.10459363      -1.76000000 final
Mo     -73.03404895      -1.05338856      -0.00000000 final
Mo     -65.09751233      -0.89764475      -0.00000000 final
Ni     -57.35857420      -0.79958955      -0.00000000 final
Ni     -49.55217739      -0.75682006      -0.00000000 final
Ni     -41.52289322      -0.81019525      -0.00000000 final
Ni     -33.72566347      -0.81320291      -0.00000000 final
Ni     -25.92410750      -0.81702556      -0.00000000 final
Ni     -18.10790097      -0.79848421      -0.00000000 final
Ni     -10.36124942      -0.77824131      -0.00000000 final
Ni      -2.70600374      -0.66240884      -0.00000000 final
Ni     -77.62500312      -2.65875172      -0.00000000 final
Ni     -69.86838310      -2.55866785      -0.00000000 final
Ni     -61.97877867      -2.41646386      -0.00000000 final
Ni     -54.11559458      -2.40559439      -0.00000000 final
Ni     -46.32347677      -2.37329500      -0.00000000 final
Ni     -38.28209442      -2.43127358      -0.00000000 final
Ni     -30.71881134      -2.35192886      -0.00000000 final
Ni     -22.91140039      -2.31572376      -0.00000000 final
Fe     -15.07784217      -2.32708682      -0.00000000 final
Ni      -7.28323883      -2.34538935      -0.00000000 final
