520
Lattice="0.0 0.0 -7.04 4e-16 -7.870959280799259 3.5200000000000014 -102.32247065039037 0.0 -6.3e-15" Properties=species:S:1:pos:R:3:frame_label:S:1 pbc="T T T"
Ni    -100.68421613      -3.12817769      -0.00000000 random
Ni     -92.83912035      -3.15220828      -0.00000000 random
Ni     -85.08944627      -3.14675678      -0.00000000 random
Ni     -97.49635799      -1.56976201      -0.00000000 random
Ni     -89.74084859      -1.57280813      -0.00000000 random
Ni     -82.01308271      -1.56713148      -0.00000000 random
Ni    -102.32334456      -0.01198342      -0.00000000 random
Ni     -94.38747173      -0.00509226      -0.00000000 random
Mo     -86.64459173       0.00509226      -0.00000000 random
Ni     -99.01898075      -2.36834816      -1.76000000 random
Ni     -91.29121487      -2.36267151      -1.76000000 random
Cr     -83.53570547      -2.36571763      -1.76000000 random
Ni     -95.94261719      -0.78872286      -1.76000000 random
Ni     -88.19294311      -0.78327136      -1.76000000 random
Mo     -80.34784733      -0.80730195      -1.76000000 random
Ni     -98.28548225       0.00638148      -1.76000000 random
Ni     -90.51603173       0.00000000      -1.76000000 random
Ni     -82.74658121      -0.00638148      -1.76000000 random
Mo     -95.16397428      -2.36492959      -0.00000000 random
Ni     -87.41715697      -2.35689535      -0.00000000 random
Ni     -79.80510840      -2.38181110      -0.00000000 random
Ni     -99.83824749      -0.74628196      -0.00000000 random
Ni     -92.06429434      -0.79030318      -0.00000000 random
Ni     -84.32128036      -0.78349434      -0.00000000 random
Ni     -96.71078310      -3.15198530      -1.76000000 random
Ni     -88.96776911      -3.14517646      -1.76000000 random
Ni     -81.19381597      -3.18919768      -1.76000000 random
Fe    -101.22695506      -1.55366854      -1.76000000 random
Ni     -93.61490649      -1.57858429      -1.76000000 random
Ni     -85.86808917      -1.57055005      -1.76000000 random
Cr     -77.06870959      -0.80694054      -1.76000000 random
Ni     -69.19580674      -0.77997460      -1.76000000 random
Ni     -61.38003842      -0.78579651      -1.76000000 random
Ni     -53.52214389      -0.78706552      -1.76000000 random
Mo     -45.65156116      -0.78709580      -1.76000000 random
Ni     -37.78060477      -0.78709594      -1.76000000 random
Cr     -29.90966339      -0.78709706      -1.76000000 random
Ni     -22.04074162      -0.78727425      -1.76000000 random
Ni     -14.19773857      -0.79019384      -1.76000000 random
Ni      -6.39440802      -0.79036345      -1.76000000 random
Ni     -73.87450081      -2.36470172      -1.76000000 random
Cr     -66.07520422      -2.35684258      -1.76000000 random
Cr     -58.24089081      -2.36090943      -1.76000000 random
Ni     -50.37408761      -2.36128415      -1.76000000 random
Ni     -42.50317956      -2.36128776      -1.76000000 random
Ni     -34.63222203      -2.36128784      -1.76000000 random
Ni     -26.76140607      -2.36129878      -1.76000000 random
Ni     -18.89818089      -2.36202534      -1.76000000 random
Ni     -11.07228666      -2.36721621      -1.76000000 random
Ni      -3.30869562      -2.36886856      -1.76000000 random
Ni     -78.70871890       0.01198342      -0.00000000 random
Ni     -70.75281085       0.00748857      -0.00000000 random
Fe     -62.94670336       0.00210653      -0.00000000 random
Mo     -55.09579383       0.00007700      -0.00000000 random
Mo     -47.22574908       0.00000036      -0.00000000 random
Ni     -39.35479640       0.00000000      -0.00000000 random
Ni     -31.48384373      -0.00000036      -0.00000000 random
Ni     -23.61379897      -0.00007700      -0.00000000 random
Cr     -15.76288945      -0.00210653      -0.00000000 random
Cr      -7.95678196      -0.00748857      -0.00000000 random
Ni     -75.40089718      -1.56661108      -0.00000000 random
Ni     -67.63730615      -1.56826343      -0.00000000 random
Ni     -59.81141192      -1.57345430      -0.00000000 random
Ni     -51.94818674      -1.57418086      -0.00000000 random
Ni     -44.07737078      -1.57419180      -0.00000000 random
Ni     -36.20641324      -1.57419188      -0.00000000 random
Ni     -28.33550520      -1.57419549      -0.00000000 random
Ni     -20.46870199      -1.57457021      -0.00000000 random
Ni     -12.63438859      -1.57863706      -0.00000000 random
Ni      -4.83509200      -1.57077792      -0.00000000 random
Ni     -72.31518479      -3.14511619      -0.00000000 random
Ni     -64.51185424      -3.14528580      -0.00000000 random
Ni     -56.66885119      -3.14820539      -0.00000000 random
Ni     -48.79992942      -3.14838258      -0.00000000 random
Mo     -40.92898804      -3.14838370      -0.00000000 random
Ni     -33.05803165      -3.14838384      -0.00000000 random
Ni     -25.18744892      -3.14841412      -0.00000000 random
Ni     -17.32955438      -3.14968313      -0.00000000 random
Ni      -9.51378607      -3.15550504      -0.00000000 random
Ni      -1.64088322      -3.12853910      -0.00000000 random
Ni     -74.66571632      -0.00561005      -1.76000000 random
Ni     -66.85646447       0.00497554      -1.76000000 random
Ni     -59.02637329       0.00053323      -1.76000000 random
Ni     -51.16114832       0.00000638      -1.76000000 random
Ni     -43.29027523       0.00000004      -1.76000000 random
Ni     -35.41931758      -0.00000004      -1.76000000 random
Ni     -27.54844449      -0.00000638      -1.76000000 random
Ni     -19.68321952      -0.00053323      -1.76000000 random
Ni     -11.85312834      -0.00497554      -1.76000000 random
Ni      -4.04387649       0.00561005      -1.76000000 random
Mo     -71.53308978      -1.56854538      -1.76000000 random
Ni     -63.72944384      -1.57161596      -1.76000000 random
Ni     -55.88242044      -1.57407356      -1.76000000 random
Ni     -48.01284078      -1.57419122      -1.76000000 random
Ni     -40.14189223      -1.57419185      -1.76000000 random
Ni     -32.27093718      -1.57419207      -1.76000000 random
Ni     -24.40057094      -1.57424087      -1.76000000 random
Cr     -16.54598334      -1.57587304      -1.76000000 random
Fe      -8.73356633      -1.58145705      -1.76000000 random
Ni      -1.09856287      -1.55406655      -1.76000000 random
Ni     -76.22147516      -3.18885388      -1.76000000 random
Ni     -68.41614100      -3.14135486      -1.76000000 random
Ni     -60.59596359      -3.14739015      -1.76000000 random
Mo     -52.73519090      -3.14836521      -1.76000000 random
Ni     -44.86446613      -3.14838363      -1.76000000 random
Fe     -36.99350898      -3.14838373      -1.76000000 random
Ni     -29.12257996      -3.14838575      -1.76000000 random
Mo     -21.25456414      -3.14864630      -1.76000000 random
Ni     -13.41571760      -3.15208440      -1.76000000 random
Ni      -5.62315349      -3.15323213      -1.76000000 random
Ni     -73.08643932      -0.78224751      -0.00000000 random
Ni     -65.29387520      -0.78339524      -0.00000000 random
Ni     -57.45502866      -0.78683334      -0.00000000 random
Fe     -49.58701285      -0.78709389      -0.00000000 random
Mo     -41.71608383      -0.78709591      -0.00000000 random
Ni     -33.84512668      -0.78709601      -0.00000000 random
Mo     -25.97440190      -0.78711443      -0.00000000 random
Ni     -18.11362921      -0.78808949      -0.00000000 random
Ni     -10.29345181      -0.79412478      -0.00000000 random
Ni      -2.48811765      -0.74662576      -0.00000000 random
Ni     -77.61102994      -2.38141309      -0.00000000 random
Ni     -69.97602648      -2.35402259      -0.00000000 random
Ni     -62.16360947      -2.35960660      -0.00000000 random
Ni     -54.30902187      -2.36123877      -0.00000000 random
Ni     -46.43865562      -2.36128757      -0.00000000 random
Mo     -38.56770058      -2.36128779      -0.00000000 random
Ni     -30.69675203      -2.36128842      -0.00000000 random
Mo     -22.82717237      -2.36140608      -0.00000000 random
Cr     -14.98014897      -2.36386368      -0.00000000 random
Cr      -7.17650302      -2.36693426      -0.00000000 random
Ni    -100.68421613      -7.06365733       1.76000000 random
Fe     -92.83912035      -7.08768792       1.76000000 random
Ni     -85.08944627      -7.08223642       1.76000000 random
Ni     -97.49635799      -5.50524165       1.76000000 random
Fe     -89.74084859      -5.50828777       1.76000000 random
Ni     -82.01308271      -5.50261112       1.76000000 random
Ni    -102.32334456      -3.94746306       1.76000000 random
Cr     -94.38747173      -3.94057190       1.76000000 random
Ni     -86.64459173      -3.93038738       1.76000000 random
Ni     -99.01898075      -6.30382780      -0.00000000 random
Ni     -91.29121487      -6.29815115      -0.00000000 random
Ni     -83.53570547      -6.30119727      -0.00000000 random
Cr     -95.94261719      -4.72420250      -0.00000000 random
Ni     -88.19294311      -4.71875100      -0.00000000 random
Ni     -80.34784733      -4.74278159      -0.00000000 random
Ni     -98.28548225      -3.92909816      -0.00000000 random
Ni     -90.51603173      -3.93547964      -0.00000000 random
Ni     -82.74658121      -3.94186112      -0.00000000 random
Ni     -95.16397428      -6.30040923       1.76000000 random
Mo     -87.41715697      -6.29237499       1.76000000 random
Ni     -79.80510840      -6.31729074       1.76000000 random
Ni     -99.83824749      -4.68176160       1.76000000 random
Ni     -92.06429434      -4.72578282       1.76000000 random
Ni     -84.32128036      -4.71897399       1.76000000 random
Ni     -96.71078310      -7.08746494      -0.00000000 random
Ni     -88.96776911      -7.08065610      -0.00000000 random
Ni     -81.19381597      -7.12467732      -0.00000000 random
Ni    -101.22695506      -5.48914818      -0.00000000 random
Ni     -93.61490649      -5.51406393      -0.00000000 random
Ni     -85.86808917      -5.50602970      -0.00000000 random
Ni     -77.06870959      -4.74242018      -0.00000000 random
Ni     -69.19580674      -4.71545424      -0.00000000 random
Ni     -61.38003842      -4.72127615      -0.00000000 random
Ni     -53.52214389      -4.72254516      -0.00000000 random
Ni     -45.65156116      -4.72257544      -0.00000000 random
Ni     -37.78060477      -4.72257558      -0.00000000 random
Ni     -29.90966339      -4.72257670      -0.00000000 random
Ni     -22.04074162      -4.72275389      -0.00000000 random
Fe     -14.19773857      -4.72567348      -0.00000000 random
Ni      -6.39440802      -4.72584309      -0.00000000 random
Fe     -73.87450081      -6.30018136      -0.00000000 random
Cr     -66.07520422      -6.29232222      -0.00000000 random
Mo     -58.24089081      -6.29638907      -0.00000000 random
Ni     -50.37408761      -6.29676379      -0.00000000 random
Ni     -42.50317956      -6.29676740      -0.00000000 random
Ni     -34.63222203      -6.29676748      -0.00000000 random
Mo     -26.76140607      -6.29677842      -0.00000000 random
Cr     -18.89818089      -6.29750498      -0.00000000 random
Mo     -11.07228666      -6.30269585      -0.00000000 random
Ni      -3.30869562      -6.30434820      -0.00000000 random
Ni     -78.70871890      -3.92349622       1.76000000 random
Ni     -70.75281085      -3.92799107       1.76000000 random
Ni     -62.94670336      -3.93337312       1.76000000 random
Ni     -55.09579383      -3.93540264       1.76000000 random
Cr     -47.22574908      -3.93547928       1.76000000 random
Ni     -39.35479640      -3.93547964       1.76000000 random
Ni     -31.48384373      -3.93548000       1.76000000 random
Ni     -23.61379897      -3.93555664       1.76000000 random
Ni     -15.76288945      -3.93758617       1.76000000 random
Ni      -7.95678196      -3.94296821       1.76000000 random
Ni     -75.40089718      -5.50209072       1.76000000 random
Ni     -67.63730615      -5.50374307       1.76000000 random
Fe     -59.81141192      -5.50893394       1.76000000 random
Ni     -51.94818674      -5.50966050       1.76000000 random
Ni     -44.07737078      -5.50967144       1.76000000 random
Fe     -36.20641324      -5.50967152       1.76000000 random
Fe     -28.33550520      -5.50967513       1.76000000 random
Ni     -20.46870199      -5.51004985       1.76000000 random
Mo     -12.63438859      -5.51411670       1.76000000 random
Mo      -4.83509200      -5.50625756       1.76000000 random
Ni     -72.31518479      -7.08059583       1.76000000 random
Ni     -64.51185424      -7.08076544       1.76000000 random
Ni     -56.66885119      -7.08368503       1.76000000 random
Ni     -48.79992942      -7.08386222       1.76000000 random
Mo     -40.92898804      -7.08386334       1.76000000 random
Ni     -33.05803165      -7.08386348       1.76000000 random
Ni     -25.18744892      -7.08389376       1.76000000 random
Ni     -17.32955438      -7.08516277       1.76000000 random
Cr      -9.51378607      -7.09098468       1.76000000 random
Ni      -1.64088322      -7.06401874       1.76000000 random
Ni     -74.66571632      -3.94108969      -0.00000000 random
Ni     -66.85646447      -3.93050410      -0.00000000 random
Ni     -59.02637329      -3.93494641      -0.00000000 random
Ni     -51.16114832      -3.93547326      -0.00000000 random
Ni     -43.29027523      -3.93547960      -0.00000000 random
Fe     -35.41931758      -3.93547968      -0.00000000 random
Ni     -27.54844449      -3.93548602      -0.00000000 random
Ni     -19.68321952      -3.93601287      -0.00000000 random
Cr     -11.85312834      -3.94045518      -0.00000000 random
Ni      -4.04387649      -3.92986959      -0.00000000 random
Ni     -71.53308978      -5.50402502      -0.00000000 random
Mo     -63.72944384      -5.50709561      -0.00000000 random
Cr     -55.88242044      -5.50955320      -0.00000000 random
Cr     -48.01284078      -5.50967086      -0.00000000 random
Cr     -40.14189223      -5.50967149      -0.00000000 random
Ni     -32.27093718      -5.50967171      -0.00000000 random
Ni     -24.40057094      -5.50972051      -0.00000000 random
Ni     -16.54598334      -5.51135268      -0.00000000 random
Ni      -8.73356633      -5.51693669      -0.00000000 random
Ni      -1.09856287      -5.48954619      -0.00000000 random
Mo     -76.22147516      -7.12433352      -0.00000000 random
Ni     -68.41614100      -7.07683450      -0.00000000 random
Mo     -60.59596359      -7.08286979      -0.00000000 random
Ni     -52.73519090      -7.08384485      -0.00000000 random
Ni     -44.86446613      -7.08386327      -0.00000000 random
Ni     -36.99350898      -7.08386337      -0.00000000 random
Ni     -29.12257996      -7.08386539      -0.00000000 random
Ni     -21.25456414      -7.08412594      -0.00000000 random
Ni     -13.41571760      -7.08756404      -0.00000000 random
Ni      -5.62315349      -7.08871177      -0.00000000 random
Ni     -73.08643932      -4.71772716       1.76000000 random
Mo     -65.29387520      -4.71887488       1.76000000 random
Ni     -57.45502866      -4.72231298       1.76000000 random
Ni     -49.58701285      -4.72257353       1.76000000 random
Ni     -41.71608383      -4.72257555       1.76000000 random
Ni     -33.84512668      -4.72257565       1.76000000 random
Ni     -25.97440190      -4.72259407       1.76000000 random
Mo     -18.11362921      -4.72356913       1.76000000 random
Mo     -10.29345181      -4.72960442       1.76000000 random
Ni      -2.48811765      -4.68210540       1.76000000 random
Ni     -77.61102994      -6.31689273       1.76000000 random
Ni     -69.97602648      -6.28950223       1.76000000 random
Ni     -62.16360947      -6.29508624       1.76000000 random
Cr     -54.30902187      -6.29671841       1.76000000 random
Mo     -46.43865562      -6.29676721       1.76000000 random
Ni     -38.56770058      -6.29676743       1.76000000 random
Ni     -30.69675203      -6.29676806       1.76000000 random
Ni     -22.82717237      -6.29688572       1.76000000 random
Ni     -14.98014897      -6.29934332       1.76000000 random
Ni      -7.17650302      -6.30241390       1.76000000 random
Ni    -100.68421613      -3.12817769      -3.52000000 random
Ni     -92.83912035      -3.15220828      -3.52000000 random
Ni     -85.08944627      -3.14675678      -3.52000000 random
Ni     -97.49635799      -1.56976201      -3.52000000 random
Ni     -89.74084859      -1.57280813      -3.52000000 random
Ni     -82.01308271      -1.56713148      -3.52000000 random
Ni    -102.32334456      -0.01198342      -3.52000000 random
Ni     -94.38747173      -0.00509226      -3.52000000 random
Ni     -86.64459173       0.00509226      -3.52000000 random
Ni     -99.01898075      -2.36834816      -5.28000000 random
Ni     -91.29121487      -2.36267151      -5.28000000 random
Cr     -83.53570547      -2.36571763      -5.28000000 random
Ni     -95.94261719      -0.78872286      -5.28000000 random
Ni     -88.19294311      -0.78327136      -5.28000000 random
Mo     -80.34784733      -0.80730195      -5.28000000 random
Ni     -98.28548225       0.00638148      -5.28000000 random
Ni     -90.51603173       0.00000000      -5.28000000 random
Ni     -82.74658121      -0.00638148      -5.28000000 random
Ni     -95.16397428      -2.36492959      -3.52000000 random
Ni     -87.41715697      -2.35689535      -3.52000000 random
Ni     -79.80510840      -2.38181110      -3.52000000 random
Ni     -99.83824749      -0.74628196      -3.52000000 random
Ni     -92.06429434      -0.79030318      -3.52000000 random
Ni     -84.32128036      -0.78349434      -3.52000000 random
Mo     -96.71078310      -3.15198530      -5.28000000 random
Ni     -88.96776911      -3.14517646      -5.28000000 random
Ni     -81.19381597      -3.18919768      -5.28000000 random
Ni    -101.22695506      -1.55366854      -5.28000000 random
Cr     -93.61490649      -1.57858429      -5.28000000 random
Ni     -85.86808917      -1.57055005      -5.28000000 random
Ni     -77.06870959      -0.80694054      -5.28000000 random
Mo     -69.19580674      -0.77997460      -5.28000000 random
Ni     -61.38003842      -0.78579651      -5.28000000 random
Cr     -53.52214389      -0.78706552      -5.28000000 random
Ni     -45.65156116      -0.78709580      -5.28000000 random
Ni     -37.78060477      -0.78709594      -5.28000000 random
Ni     -29.90966339      -0.78709706      -5.28000000 random
Ni     -22.04074162      -0.78727425      -5.28000000 random
Ni     -14.19773857      -0.79019384      -5.28000000 random
Ni      -6.39440802      -0.79036345      -5.28000000 random
Ni     -73.87450081      -2.36470172      -5.28000000 random
Ni     -66.07520422      -2.35684258      -5.28000000 random
Ni     -58.24089081      -2.36090943      -5.28000000 random
Ni     -50.37408761      -2.36128415      -5.28000000 random
Ni     -42.50317956      -2.36128776      -5.28000000 random
Ni     -34.63222203      -2.36128784      -5.28000000 random
Ni     -26.76140607      -2.36129878      -5.28000000 random
Ni     -18.89818089      -2.36202534      -5.28000000 random
Mo     -11.07228666      -2.36721621      -5.28000000 random
Ni      -3.30869562      -2.36886856      -5.28000000 random
Ni     -78.70871890       0.01198342      -3.52000000 random
Ni     -70.75281085       0.00748857      -3.52000000 random
Cr     -62.94670336       0.00210653      -3.52000000 random
Ni     -55.09579383       0.00007700      -3.52000000 random
Ni     -47.22574908       0.00000036      -3.52000000 random
Ni     -39.35479640       0.00000000      -3.52000000 random
Ni     -31.48384373      -0.00000036      -3.52000000 random
Ni     -23.61379897      -0.00007700      -3.52000000 random
Ni     -15.76288945      -0.00210653      -3.52000000 random
Ni      -7.95678196      -0.00748857      -3.52000000 random
Ni     -75.40089718      -1.56661108      -3.52000000 random
Mo     -67.63730615      -1.56826343      -3.52000000 random
Ni     -59.81141192      -1.57345430      -3.52000000 random
Ni     -51.94818674      -1.57418086      -3.52000000 random
Ni     -44.07737078      -1.57419180      -3.52000000 random
Ni     -36.20641324      -1.57419188      -3.52000000 random
Ni     -28.33550520      -1.57419549      -3.52000000 random
Ni     -20.46870199      -1.57457021      -3.52000000 random
Ni     -12.63438859      -1.57863706      -3.52000000 random
Ni      -4.83509200      -1.57077792      -3.52000000 random
Ni     -72.31518479      -3.14511619      -3.52000000 random
Cr     -64.51185424      -3.14528580      -3.52000000 random
Ni     -56.66885119      -3.14820539      -3.52000000 random
Ni     -48.79992942      -3.14838258      -3.52000000 random
Ni     -40.92898804      -3.14838370      -3.52000000 random
Cr     -33.05803165      -3.14838384      -3.52000000 random
Ni     -25.18744892      -3.14841412      -3.52000000 random
Ni     -17.32955438      -3.14968313      -3.52000000 random
Ni      -9.51378607      -3.15550504      -3.52000000 random
Mo      -1.64088322      -3.12853910      -3.52000000 random
Mo     -74.66571632      -0.00561005      -5.28000000 random
Fe     -66.85646447       0.00497554      -5.28000000 random
Ni     -59.02637329       0.00053323      -5.28000000 random
Ni     -51.16114832       0.00000638      -5.28000000 random
Fe     -43.29027523       0.00000004      -5.28000000 random
Ni     -35.41931758      -0.00000004      -5.28000000 random
Cr     -27.54844449      -0.00000638      -5.28000000 random
Fe     -19.68321952      -0.00053323      -5.28000000 random
Ni     -11.85312834      -0.00497554      -5.28000000 random
Ni      -4.04387649       0.00561005      -5.28000000 random
Ni     -71.53308978      -1.56854538      -5.28000000 random
Mo     -63.72944384      -1.57161596      -5.28000000 random
Ni     -55.88242044      -1.57407356      -5.28000000 random
Ni     -48.01284078      -1.57419122      -5.28000000 random
Ni     -40.14189223      -1.57419185      -5.28000000 random
Ni     -32.27093718      -1.57419207      -5.28000000 random
Ni     -24.40057094      -1.57424087      -5.28000000 random
Ni     -16.54598334      -1.57587304      -5.28000000 random
Mo      -8.73356633      -1.58145705      -5.28000000 random
Ni      -1.09856287      -1.55406655      -5.28000000 random
Ni     -76.22147516      -3.18885388      -5.28000000 random
Mo     -68.41614100      -3.14135486      -5.28000000 random
Ni     -60.59596359      -3.14739015      -5.28000000 random
Ni     -52.73519090      -3.14836521      -5.28000000 random
Ni     -44.86446613      -3.14838363      -5.28000000 random
Ni     -36.99350898      -3.14838373      -5.28000000 random
Ni     -29.12257996      -3.14838575      -5.28000000 random
Fe     -21.25456414      -3.14864630      -5.28000000 random
Fe     -13.41571760      -3.15208440      -5.28000000 random
Ni      -5.62315349      -3.15323213      -5.28000000 random
Ni     -73.08643932      -0.78224751      -3.52000000 random
Ni     -65.29387520      -0.78339524      -3.52000000 random
Ni     -57.45502866      -0.78683334      -3.52000000 random
Ni     -49.58701285      -0.78709389      -3.52000000 random
Ni     -41.71608383      -0.78709591      -3.52000000 random
Mo     -33.84512668      -0.78709601      -3.52000000 random
Ni     -25.97440190      -0.78711443      -3.52000000 random
Fe     -18.11362921      -0.78808949      -3.52000000 random
Ni     -10.29345181      -0.79412478      -3.52000000 random
Ni      -2.48811765      -0.74662576      -3.52000000 random
Ni     -77.61102994      -2.38141309      -3.52000000 random
Ni     -69.97602648      -2.35402259      -3.52000000 random
Ni     -62.16360947      -2.35960660      -3.52000000 random
Ni     -54.30902187      -2.36123877      -3.52000000 random
Ni     -46.43865562      -2.36128757      -3.52000000 random
Cr     -38.56770058      -2.36128779      -3.52000000 random
Ni     -30.69675203      -2.36128842      -3.52000000 random
Ni     -22.82717237      -2.36140608      -3.52000000 random
Cr     -14.98014897      -2.36386368      -3.52000000 random
Ni      -7.17650302      -2.36693426      -3.52000000 random
Ni    -100.68421613      -7.06365733      -1.76000000 random
Cr     -92.83912035      -7.08768792      -1.76000000 random
Ni     -85.08944627      -7.08223642      -1.76000000 random
Ni     -97.49635799      -5.50524165      -1.76000000 random
Ni     -89.74084859      -5.50828777      -1.76000000 random
Mo     -82.01308271      -5.50261112      -1.76000000 random
Ni    -102.32334456      -3.94746306      -1.76000000 random
Ni     -94.38747173      -3.94057190      -1.76000000 random
Ni     -86.64459173      -3.93038738      -1.76000000 random
Mo     -99.01898075      -6.30382780      -3.52000000 random
Mo     -91.29121487      -6.29815115      -3.52000000 random
Ni     -83.53570547      -6.30119727      -3.52000000 random
Ni     -95.94261719      -4.72420250      -3.52000000 random
Ni     -88.19294311      -4.71875100      -3.52000000 random
Ni     -80.34784733      -4.74278159      -3.52000000 random
Ni     -98.28548225      -3.92909816      -3.52000000 random
Ni     -90.51603173      -3.93547964      -3.52000000 random
Ni     -82.74658121      -3.94186112      -3.52000000 random
Ni     -95.16397428      -6.30040923      -1.76000000 random
Ni     -87.41715697      -6.29237499      -1.76000000 random
Ni     -79.80510840      -6.31729074      -1.76000000 random
Fe     -99.83824749      -4.68176160      -1.76000000 random
Ni     -92.06429434      -4.72578282      -1.76000000 random
Fe     -84.32128036      -4.71897399      -1.76000000 random
Ni     -96.71078310      -7.08746494      -3.52000000 random
Cr     -88.96776911      -7.08065610      -3.52000000 random
Mo     -81.19381597      -7.12467732      -3.52000000 random
Ni    -101.22695506      -5.48914818      -3.52000000 random
Ni     -93.61490649      -5.51406393      -3.52000000 random
Ni     -85.86808917      -5.50602970      -3.52000000 random
Cr     -77.06870959      -4.74242018      -3.52000000 random
Ni     -69.19580674      -4.71545424      -3.52000000 random
Ni     -61.38003842      -4.72127615      -3.52000000 random
Ni     -53.52214389      -4.72254516      -3.52000000 random
Ni     -45.65156116      -4.72257544      -3.52000000 random
Cr     -37.78060477      -4.72257558      -3.52000000 random
Ni     -29.90966339      -4.72257670      -3.52000000 random
Mo     -22.04074162      -4.72275389      -3.52000000 random
Ni     -14.19773857      -4.72567348      -3.52000000 random
Ni      -6.39440802      -4.72584309      -3.52000000 random
Ni     -73.87450081      -6.30018136      -3.52000000 random
Ni     -66.07520422      -6.29232222      -3.52000000 random
Ni     -58.24089081      -6.29638907      -3.52000000 random
Ni     -50.37408761      -6.29676379      -3.52000000 random
Ni     -42.50317956      -6.29676740      -3.52000000 random
Ni     -34.63222203      -6.29676748      -3.52000000 random
Ni     -26.76140607      -6.29677842      -3.52000000 random
Cr     -18.89818089      -6.29750498      -3.52000000 random
Ni     -11.07228666      -6.30269585      -3.52000000 random
Ni      -3.30869562      -6.30434820      -3.52000000 random
Ni     -78.70871890      -3.92349622      -1.76000000 random
Ni     -70.75281085      -3.92799107      -1.76000000 random
Ni     -62.94670336      -3.93337312      -1.76000000 random
Cr     -55.09579383      -3.93540264      -1.76000000 random
Cr     -47.22574908      -3.93547928      -1.76000000 random
Cr     -39.35479640      -3.93547964      -1.76000000 random
Ni     -31.48384373      -3.93548000      -1.76000000 random
Ni     -23.61379897      -3.93555664      -1.76000000 random
Ni     -15.76288945      -3.93758617      -1.76000000 random
Ni      -7.95678196      -3.94296821      -1.76000000 random
Ni     -75.40089718      -5.50209072      -1.76000000 random
Mo     -67.63730615      -5.50374307      -1.76000000 random
Ni     -59.81141192      -5.50893394      -1.76000000 random
Ni     -51.94818674      -5.50966050      -1.76000000 random
Ni     -44.07737078      -5.50967144      -1.76000000 random
Ni     -36.20641324      -5.50967152      -1.76000000 random
Ni     -28.33550520      -5.50967513      -1.76000000 random
Ni     -20.46870199      -5.51004985      -1.76000000 random
Ni     -12.63438859      -5.51411670      -1.76000000 random
Ni      -4.83509200      -5.50625756      -1.76000000 random
Ni     -72.31518479      -7.08059583      -1.76000000 random
Cr     -64.51185424      -7.08076544      -1.76000000 random
Ni     -56.66885119      -7.08368503      -1.76000000 random
Ni     -48.79992942      -7.08386222      -1.76000000 random
Ni     -40.92898804      -7.08386334      -1.76000000 random
Ni     -33.05803165      -7.08386348      -1.76000000 random
Ni     -25.18744892      -7.08389376      -1.76000000 random
Ni     -17.32955438      -7.08516277      -1.76000000 random
Mo      -9.51378607      -7.09098468      -1.76000000 random
Ni      -1.64088322      -7.06401874      -1.76000000 random
Ni     -74.66571632      -3.94108969      -3.52000000 random
Ni     -66.85646447      -3.93050410      -3.52000000 random
Ni     -59.02637329      -3.93494641      -3.52000000 random
Ni     -51.16114832      -3.93547326      -3.52000000 random
Ni     -43.29027523      -3.93547960      -3.52000000 random
Cr     -35.41931758      -3.93547968      -3.52000000 random
Cr     -27.54844449      -3.93548602      -3.52000000 random
Ni     -19.68321952      -3.93601287      -3.52000000 random
Ni     -11.85312834      -3.94045518      -3.52000000 random
Ni      -4.04387649      -3.92986959      -3.52000000 random
Ni     -71.53308978      -5.50402502      -3.52000000 random
Ni     -63.72944384      -5.50709561      -3.52000000 random
Ni     -55.88242044      -5.50955320      -3.52000000 random
Ni     -48.01284078      -5.50967086      -3.52000000 random
Ni     -40.14189223      -5.50967149      -3.52000000 random
Ni     -32.27093718      -5.50967171      -3.52000000 random
Ni     -24.40057094      -5.50972051      -3.52000000 random
Ni     -16.54598334      -5.51135268      -3.52000000 random
Ni      -8.73356633      -5.51693669      -3.52000000 random
Ni      -1.09856287      -5.48954619      -3.52000000 random
Mo     -76.22147516      -7.12433352      -3.52000000 random
Ni     -68.41614100      -7.07683450      -3.52000000 random
Ni     -60.59596359      -7.08286979      -3.52000000 random
Ni     -52.73519090      -7.08384485      -3.52000000 random
Ni     -44.86446613      -7.08386327      -3.52000000 random
Ni     -36.99350898      -7.08386337      -3.52000000 random
Ni     -29.12257996      -7.08386539      -3.52000000 random
Mo     -21.25456414      -7.08412594      -3.52000000 random
Mo     -13.41571760      -7.08756404      -3.52000000 random
Cr      -5.62315349      -7.08871177      -3.52000000 random
Ni     -73.08643932      -4.71772716      -1.76000000 random
Mo     -65.29387520      -4.71887488      -1.76000000 random
Mo     -57.45502866      -4.72231298      -1.76000000 random
Ni     -49.58701285      -4.72257353      -1.76000000 random
Ni     -41.71608383      -4.72257555      -1.76000000 random
Ni     -33.84512668      -4.72257565      -1.76000000 random
Mo     -25.97440190      -4.72259407      -1.76000000 random
Ni     -18.11362921      -4.72356913      -1.76000000 random
Ni     -10.29345181      -4.72960442      -1.76000000 random
Ni      -2.48811765      -4.68210540      -1.76000000 random
Ni     -77.61102994      -6.31689273      -1.76000000 random
Ni     -69.97602648      -6.28950223      -1.76000000 random
Ni     -62.16360947      -6.29508624      -1.76000000 random
Ni     -54.30902187      -6.29671841      -1.76000000 random
Ni     -46.43865562      -6.29676721      -1.76000000 random
Ni     -38.56770058      -6.29676743      -1.76000000 random
Ni     -30.69675203      -6.29676806      -1.76000000 random
Ni     -22.82717237      -6.29688572      -1.76000000 random
Ni     -14.98014897      -6.29934332      -1.76000000 random
Ni      -7.17650302      -6.30241390      -1.76000000 random
520
Lattice="0.0 0.0 -7.04 4e-16 -7.870959280799259 3.5200000000000014 -102.32247065039037 0.0 -6.3e-15" Properties=species:S:1:pos:R:3:frame_label:S:1 pbc="T T T"
Mo    -100.74537309      -3.16274684       0.00083112 snap1000
Ni     -92.85919662      -3.18462515      -0.00241134 snap1000
Ni     -85.16135473      -3.32176339       0.04493876 snap1000
Cr     -97.53289725      -1.58329888      -0.00313603 snap1000
Ni     -89.83491910      -1.69710671       0.00269277 snap1000
Ni     -82.06537933      -1.76416038       0.02827800 snap1000
Ni    -102.32409778      -0.09807547      -0.04241058 snap1000
Ni     -94.43780638      -0.05514626      -0.00617922 snap1000
Ni     -86.70010907      -0.18407676       0.03360686 snap1000
Ni     -99.03594416      -2.36002078      -1.75406740 snap1000
Cr     -91.35133341      -2.41890570      -1.74623477 snap1000
Mo     -83.63618213      -2.56026594      -1.77244917 snap1000
Ni     -96.00948328      -0.81968448      -1.75136121 snap1000
Fe     -88.27865021      -0.97451987      -1.76607753 snap1000
Mo     -80.00238744      -1.01585379      -1.71804395 snap1000
Ni     -98.31192393      -0.00765868      -1.75675480 snap1000
Ni     -90.56300843      -0.11286303      -1.76697473 snap1000
Ni     -82.71832486      -0.22351785      -1.75804675 snap1000
Fe     -95.23528828      -2.38926990      -0.00117810 snap1000
Fe     -87.52131313      -2.49511430       0.03515134 snap1000
Ni     -79.96064442      -2.69044341       0.01084405 snap1000
Ni     -99.83257927      -0.76395185      -0.01202655 snap1000
Ni     -92.10428758      -0.84420335      -0.00720496 snap1000
Ni     -84.37849382      -0.96874750       0.02372175 snap1000
Ni     -96.77314625      -3.18217016      -1.73527679 snap1000
Ni     -89.09360751      -3.27038643      -1.76416235 snap1000
Ni     -81.29242367      -3.36617945      -1.78505296 snap1000
Ni    -101.29109434      -1.60108898      -1.76184590 snap1000
Ni     -93.64356564      -1.61488349      -1.73470576 snap1000
Ni     -85.96785895      -1.70157066      -1.75607746 snap1000
Ni     -77.09710234      -0.64643656      -1.77267009 snap1000
Ni     -69.13526173      -0.67370155      -1.73582886 snap1000
Ni     -61.23064685      -0.79457835      -1.71631081 snap1000
Ni     -53.46329849      -0.77618531      -1.74559924 snap1000
Ni     -45.54531124      -0.82124501      -1.76331274 snap1000
Ni     -37.79002845      -0.74435482      -1.79196063 snap1000
Ni     -29.96556496      -0.78231252      -1.77269471 snap1000
Ni     -22.08544816      -0.70032793      -1.76905449 snap1000
Ni     -14.22541286      -0.71402885      -1.75970072 snap1000
Ni      -6.38256712      -0.72000245      -1.74655905 snap1000
Ni     -73.86791023      -2.26204411      -1.77138060 snap1000
Ni     -66.00781856      -2.31973884      -1.71753663 snap1000
Ni     -58.13681797      -2.39871043      -1.71956860 snap1000
Ni     -50.25425078      -2.42671282      -1.76096784 snap1000
Ni     -42.46789761      -2.38669548      -1.78574529 snap1000
Cr     -34.62296180      -2.35856510      -1.77169873 snap1000
Ni     -26.83010259      -2.33031337      -1.78928155 snap1000
Mo     -18.98716233      -2.31616643      -1.75991083 snap1000
Ni     -11.09299477      -2.36070729      -1.75927933 snap1000
Ni      -3.39233727      -2.27892326      -1.76761077 snap1000
Ni     -78.64421249       0.26947595      -0.01000290 snap1000
Ni     -70.68072030       0.14700839       0.00056001 snap1000
Ni     -62.82111464       0.03571295       0.01003496 snap1000
Ni     -55.05226411       0.02013730       0.00992499 snap1000
Ni     -47.08447875      -0.02171141      -0.02896577 snap1000
Ni     -39.33920291       0.04520561       0.00295537 snap1000
Ni     -31.54284839       0.00584170      -0.04011403 snap1000
Ni     -23.67937240       0.08817421      -0.00546889 snap1000
Ni     -15.82862695       0.05417669       0.02133228 snap1000
Ni      -7.96746871       0.03409796       0.02553716 snap1000
Ni     -75.44290313      -1.45113805      -0.00639104 snap1000
Cr     -67.56090396      -1.48375636      -0.00868107 snap1000
Ni     -59.67037027      -1.60426146       0.01070438 snap1000
Ni     -51.85744119      -1.59085132       0.00212522 snap1000
Ni     -44.02337227      -1.60757771      -0.00812374 snap1000
Ni     -36.19148134      -1.53708774      -0.03946360 snap1000
Ni     -28.41713438      -1.55801648      -0.00704817 snap1000
Ni     -20.53229951      -1.50646051       0.02352715 snap1000
Ni     -12.65174521      -1.54626259      -0.02317794 snap1000
Cr      -4.88815529      -1.50609816      -0.00079878 snap1000
Ni     -72.27481360      -3.04072966      -0.00350078 snap1000
Ni     -64.40328113      -3.16328722      -0.02164012 snap1000
Cr     -56.60435429      -3.16646496       0.01424619 snap1000
Ni     -48.68306307      -3.21124132       0.00568339 snap1000
Ni     -40.92714470      -3.18000408       0.00051235 snap1000
Ni     -33.06316731      -3.14606037      -0.02149640 snap1000
Ni     -25.28131600      -3.12940909      -0.00535067 snap1000
Ni     -17.41420043      -3.13185495       0.00091747 snap1000
Ni      -9.51912528      -3.17261071      -0.00217573 snap1000
Mo      -1.66414892      -3.03229829      -0.03508572 snap1000
Ni     -74.63382492       0.14825991      -1.76499970 snap1000
Ni     -66.76948388       0.07291176      -1.73275208 snap1000
Ni     -58.89612139      -0.00351061      -1.72532498 snap1000
Ni     -51.05885926      -0.00035409      -1.77410350 snap1000
Ni     -43.23133264      -0.01146673      -1.77972475 snap1000
Ni     -35.41006743      -0.01367697      -1.78549601 snap1000
Ni     -27.60639357       0.00177029      -1.79720373 snap1000
Ni     -19.75060260       0.07388337      -1.76609177 snap1000
Fe     -11.85599047       0.00632330      -1.75884316 snap1000
Ni      -4.07757416       0.06355190      -1.75689480 snap1000
Ni     -71.45972947      -1.45211969      -1.75628553 snap1000
Mo     -63.59364367      -1.56848795      -1.74518078 snap1000
Ni     -55.83184060      -1.58736245      -1.72295122 snap1000
Ni     -47.87059696      -1.61691370      -1.76065611 snap1000
Ni     -40.13787867      -1.56321584      -1.81684307 snap1000
Ni     -32.30459099      -1.57980471      -1.78087876 snap1000
Ni     -24.49818796      -1.50481429      -1.79778663 snap1000
Ni     -16.61114000      -1.50909849      -1.75987928 snap1000
Mo      -8.73945859      -1.54706365      -1.76187419 snap1000
Ni      -1.16918795      -1.44872795      -1.74367915 snap1000
Ni     -76.24471792      -2.97004533      -1.77862925 snap1000
Ni     -68.37109849      -3.04563319      -1.70425196 snap1000
Cr     -60.49805751      -3.22584160      -1.70487722 snap1000
Mo     -52.68228726      -3.16556467      -1.74896184 snap1000
Ni     -44.79793062      -3.18383816      -1.76644532 snap1000
Ni     -36.99555930      -3.13023268      -1.77896140 snap1000
Fe     -29.19815551      -3.10866751      -1.77122277 snap1000
Ni     -21.34152415      -3.14314727      -1.75050537 snap1000
Ni     -13.44695092      -3.14720241      -1.75970724 snap1000
Ni      -5.69594040      -3.08101895      -1.75305068 snap1000
Mo     -73.04544472      -0.64889986      -0.00233437 snap1000
Ni     -65.22299077      -0.73275025       0.00177633 snap1000
Cr     -57.36667017      -0.78106369       0.00706750 snap1000
Mo     -49.49078626      -0.80500690       0.00436354 snap1000
Mo     -41.66288244      -0.78993409       0.00497186 snap1000
Ni     -33.83315839      -0.81683699      -0.04032974 snap1000
Mo     -26.05974873      -0.74157182       0.00691647 snap1000
Ni     -18.16678619      -0.72518983       0.03681042 snap1000
Ni     -10.30965400      -0.75575407       0.01308896 snap1000
Ni      -2.58713033      -0.67015823       0.00944162 snap1000
Ni     -77.78565489      -2.12202210      -0.01832195 snap1000
Ni     -69.91625913      -2.23640688       0.00023697 snap1000
Ni     -62.00439620      -2.40368103       0.00019942 snap1000
Ni     -54.28275839      -2.35455316       0.00924825 snap1000
Fe     -46.33722603      -2.40555803       0.00281875 snap1000
Mo     -38.57631097      -2.32849478      -0.01747218 snap1000
Fe     -30.74215618      -2.33247630      -0.01574987 snap1000
Mo     -22.91893669      -2.31622100       0.00180976 snap1000
Mo     -15.03102553      -2.33604654      -0.00991472 snap1000
Ni      -7.18183186      -2.33502323       0.02295567 snap1000
Cr    -100.62044874      -7.13776515       1.76040326 snap1000
Fe     -92.86757299      -7.14567187       1.73845749 snap1000
Ni     -85.10483071      -7.31133758       1.74963510 snap1000
Cr     -97.51441932      -5.53736371       1.74297446 snap1000
Ni     -89.83625891      -5.63732662       1.75109956 snap1000
Ni     -82.08930262      -5.71921911       1.75235016 snap1000
Ni    -102.36972469      -4.02035082       1.75142251 snap1000
Ni     -94.44052133      -3.98299248       1.70893851 snap1000
Ni     -86.72971822      -4.09301679       1.75429780 snap1000
Ni     -99.02890999      -6.32000425       0.02549075 snap1000
Ni     -91.32975872      -6.38025245      -0.01973597 snap1000
Fe     -83.57700720      -6.52906831       0.02665647 snap1000
Ni     -96.00733786      -4.78151769       0.00659187 snap1000
Ni     -88.29995250      -4.86858995      -0.00782481 snap1000
Ni     -80.47138428      -4.96117325       0.02693671 snap1000
Ni     -98.31677178      -3.94396721      -0.00206076 snap1000
Ni     -90.57498132      -4.02172966      -0.00604910 snap1000
Cr     -82.82229638      -4.13181457       0.09130175 snap1000
Ni     -95.22520798      -6.34757085       1.73578120 snap1000
Mo     -87.48073328      -6.48405671       1.76069183 snap1000
Ni     -79.86019400      -6.43902674       1.75261154 snap1000
Ni     -99.80860880      -4.71952405       1.75784537 snap1000
Ni     -92.10545817      -4.77464797       1.73225547 snap1000
Ni     -84.40009600      -4.93664321       1.74537370 snap1000
Ni     -96.76212795      -7.14476912       0.00416886 snap1000
Ni     -89.04917208      -7.24458960      -0.02775830 snap1000
Ni     -81.18678209      -7.36403540       0.00466201 snap1000
Ni    -101.28130775      -5.61680910       0.10778525 snap1000
Ni     -93.64761457      -5.56820947      -0.00141777 snap1000
Ni     -85.90934112      -5.70774814      -0.00095365 snap1000
Ni     -76.97227007      -4.49444739      -0.00659211 snap1000
Fe     -69.16484318      -4.63721025      -0.01016232 snap1000
Ni     -61.26159228      -4.76371717       0.00992062 snap1000
Ni     -53.47436100      -4.75042485       0.00771250 snap1000
Ni     -45.53468009      -4.73521093       0.02781473 snap1000
Ni     -37.82419430      -4.71603081      -0.04772862 snap1000
Ni     -29.96552558      -4.67383729      -0.00071155 snap1000
Ni     -22.12440354      -4.73623460      -0.00208653 snap1000
Ni     -14.25366134      -4.74441047      -0.03673999 snap1000
Ni      -6.48306280      -4.67725107      -0.00696513 snap1000
Ni     -73.81993531      -6.10281123      -0.00266189 snap1000
Ni     -65.98381385      -6.28036492      -0.01790879 snap1000
Ni     -58.14921035      -6.32558338       0.01763012 snap1000
Ni     -50.24597851      -6.28014206       0.01348451 snap1000
Cr     -42.44578179      -6.28101036       0.00703298 snap1000
Ni     -34.63443649      -6.31009288      -0.01568655 snap1000
Ni     -26.80106517      -6.25419302      -0.02921860 snap1000
Ni     -18.98843427      -6.28617989      -0.03450830 snap1000
Ni     -11.08979571      -6.28735547      -0.03114730 snap1000
Ni      -3.35521563      -6.22818940      -0.04054417 snap1000
Mo     -78.68049240      -3.83027698       1.72795756 snap1000
Ni     -70.71670350      -3.82151388       1.73138215 snap1000
Ni     -62.80326195      -3.97840036       1.76215964 snap1000
Ni     -55.08955513      -3.93678208       1.78227475 snap1000
Ni     -47.13086489      -3.96542479       1.77260040 snap1000
Ni     -39.35692924      -3.95058098       1.78672947 snap1000
Ni     -31.50318945      -3.90229112       1.76476162 snap1000
Ni     -23.69947532      -3.92862007       1.76266873 snap1000
Ni     -15.80496171      -3.96229877       1.76021958 snap1000
Cr      -7.97806953      -3.93736908       1.76254716 snap1000
Ni     -75.35982396      -5.27132401       1.76550019 snap1000
Ni     -67.57573197      -5.45530353       1.73891218 snap1000
Cr     -59.70775606      -5.54645255       1.76589946 snap1000
Ni     -51.81278761      -5.51429993       1.73953125 snap1000
Ni     -43.97788282      -5.50864711       1.74293807 snap1000
Mo     -36.26480665      -5.47644927       1.70199940 snap1000
Mo     -28.37118928      -5.46656257       1.75014970 snap1000
Ni     -20.60381974      -5.51495912       1.75232957 snap1000
Mo     -12.67417600      -5.50573716       1.76097513 snap1000
Mo      -4.90734761      -5.45737838       1.74341647 snap1000
Ni     -72.25065247      -6.91589700       1.74857390 snap1000
Ni     -64.39479421      -7.05647324       1.76734653 snap1000
Ni     -56.59622904      -7.07392064       1.79950150 snap1000
Cr     -48.66459383      -7.04660041       1.75994782 snap1000
Ni     -40.91348930      -7.05896272       1.72859041 snap1000
Cr     -33.06930786      -7.10387338       1.70712547 snap1000
Ni     -25.27165711      -7.01747119       1.73228882 snap1000
Ni     -17.40120203      -7.07338899       1.76017996 snap1000
Ni      -9.56210910      -7.05273284       1.76101857 snap1000
Mo      -1.63261060      -6.93537822       1.76142834 snap1000
Fe     -74.60498882      -3.76290113      -0.00342942 snap1000
Ni     -66.79435730      -3.87701713      -0.02120632 snap1000
Ni     -58.91818180      -3.98389307       0.00554146 snap1000
Ni     -51.01803500      -3.96677136       0.00110015 snap1000
Cr     -43.22933566      -3.92819058       0.00622928 snap1000
Ni     -35.43313662      -3.90573504      -0.06247378 snap1000
Ni     -27.60122021      -3.87553724      -0.03046015 snap1000
Ni     -19.79955041      -3.94201711      -0.01440392 snap1000
Ni     -11.87372345      -3.94270874      -0.04818432 snap1000
Ni      -4.12474973      -3.83015090      -0.03196694 snap1000
Ni     -71.47637933      -5.40013945      -0.00031698 snap1000
Ni     -63.59709916      -5.52932101      -0.01059498 snap1000
Ni     -55.85101618      -5.47016050       0.00899789 snap1000
Ni     -47.92223388      -5.52422416       0.03717282 snap1000
Ni     -40.12228376      -5.50170842      -0.01679153 snap1000
Ni     -32.30108006      -5.50583067       0.01646196 snap1000
Ni     -24.47139194      -5.45755729      -0.00387059 snap1000
Ni     -16.61479514      -5.51292974      -0.02828661 snap1000
Ni      -8.77534834      -5.50011961      -0.01408056 snap1000
Ni      -1.14682678      -5.41354226      -0.00767811 snap1000
Mo     -76.19773594      -6.93445967       0.00063526 snap1000
Ni     -68.35712168      -6.99724676      -0.00434284 snap1000
Ni     -60.47353054      -7.06543477       0.01130056 snap1000
Ni     -52.62555025      -7.06688529       0.01008709 snap1000
Cr     -44.73188375      -7.09618747       0.05314171 snap1000
Ni     -37.02332516      -7.08687361      -0.02662488 snap1000
Ni     -29.17601147      -7.07718711       0.00378445 snap1000
Cr     -21.32316496      -7.04859385      -0.00716043 snap1000
Ni     -13.45346862      -7.08279362      -0.01333988 snap1000
Ni      -5.67605368      -7.04973237      -0.03113618 snap1000
Ni     -73.04324324      -4.56570443       1.76090876 snap1000
Mo     -65.20790243      -4.70078154       1.75196182 snap1000
Ni     -57.38706460      -4.74301857       1.77960337 snap1000
Cr     -49.48356320      -4.74155888       1.75676710 snap1000
Ni     -41.67888184      -4.71566102       1.75512435 snap1000
Ni     -33.84490744      -4.74210944       1.73702817 snap1000
Ni     -26.02691655      -4.67141630       1.76054274 snap1000
Mo     -18.20693310      -4.72130564       1.76139778 snap1000
Ni     -10.28096105      -4.73176542       1.76069342 snap1000
Ni      -2.55997739      -4.58233571       1.76481536 snap1000
Ni     -77.64911780      -6.08689963       1.74835996 snap1000
Ni     -69.92594313      -6.20606484       1.73795659 snap1000
Fe     -62.03540776      -6.30567829       1.77644872 snap1000
Ni     -54.25591719      -6.24759463       1.77952629 snap1000
Ni     -46.30890101      -6.31640882       1.76738696 snap1000
Ni     -38.59836726      -6.29183069       1.74799288 snap1000
Ni     -30.75975986      -6.28920035       1.75462537 snap1000
Cr     -22.91921562      -6.26120247       1.75813754 snap1000
Ni     -15.06466399      -6.28824794       1.76031317 snap1000
Ni      -7.25048866      -6.28429022       1.76773629 snap1000
Mo    -100.73313401      -3.16265291      -3.52450455 snap1000
Ni     -92.84145272      -3.18235433      -3.51990511 snap1000
Ni     -85.17764341      -3.32366275      -3.56985205 snap1000
Cr     -97.57396305      -1.57454201      -3.51965872 snap1000
Ni     -89.84560948      -1.70700526      -3.52855981 snap1000
Ni     -82.02933237      -1.75326223      -3.54953121 snap1000
Ni    -102.34127818      -0.11859594      -3.48612963 snap1000
Ni     -94.42845584      -0.03483136      -3.52090278 snap1000
Fe     -86.70193302      -0.19048050      -3.55852497 snap1000
Ni     -99.02878060      -2.36215537      -5.28934262 snap1000
Cr     -91.34884584      -2.43568532      -5.29715869 snap1000
Ni     -83.61586060      -2.55762577      -5.28610352 snap1000
Ni     -96.00769334      -0.82281966      -5.29281811 snap1000
Ni     -88.28037170      -0.94739842      -5.28008513 snap1000
Mo     -80.01812028      -0.99111761      -5.32343301 snap1000
Ni     -98.31692676      -0.01238554      -5.28621968 snap1000
Ni     -90.58911255      -0.11292487      -5.27701606 snap1000
Ni     -82.76356784      -0.23628154      -5.27971840 snap1000
Mo     -95.20147589      -2.41606277      -3.52162809 snap1000
Fe     -87.51914118      -2.48887438      -3.55751573 snap1000
Ni     -79.84835131      -2.60746950      -3.52868080 snap1000
Ni     -99.84725615      -0.76036231      -3.51046785 snap1000
Ni     -92.11583831      -0.86271368      -3.51415056 snap1000
Ni     -84.36961013      -0.96692425      -3.54769944 snap1000
Ni     -96.77443260      -3.19020873      -5.30538117 snap1000
Ni     -89.07293107      -3.28136593      -5.28038638 snap1000
Ni     -81.29536398      -3.38217660      -5.25042222 snap1000
Ni    -101.27711350      -1.58134997      -5.28166086 snap1000
Ni     -93.63858278      -1.61394666      -5.30795387 snap1000
Ni     -85.93472985      -1.73288729      -5.27709989 snap1000
Ni     -77.11161009      -0.65460693      -5.27924078 snap1000
Ni     -69.13558576      -0.68173461      -5.30237916 snap1000
Ni     -61.24304028      -0.78931389      -5.31146735 snap1000
Ni     -53.46098754      -0.77585982      -5.28001674 snap1000
Ni     -45.53333941      -0.82606526      -5.27558083 snap1000
Ni     -37.78980549      -0.76156576      -5.25802800 snap1000
Ni     -29.95296970      -0.79313174      -5.27408052 snap1000
Ni     -22.11569918      -0.69994351      -5.27342892 snap1000
Ni     -14.23082003      -0.74990576      -5.27958224 snap1000
Ni      -6.40890509      -0.75646409      -5.29539704 snap1000
Ni     -73.86922759      -2.25895430      -5.27850801 snap1000
Ni     -66.01865990      -2.30832718      -5.31259960 snap1000
Cr     -58.11544227      -2.40321626      -5.32710172 snap1000
Ni     -50.25419889      -2.42307172      -5.26907096 snap1000
Ni     -42.46883449      -2.37542550      -5.25802255 snap1000
Mo     -34.64921246      -2.37596529      -5.27778201 snap1000
Ni     -26.85266297      -2.33486555      -5.25034433 snap1000
Ni     -18.98046988      -2.31173775      -5.28158757 snap1000
Mo     -11.09593383      -2.36473245      -5.28021376 snap1000
Ni      -3.39546904      -2.28937195      -5.28483153 snap1000
Ni     -78.66905649       0.16868154      -3.51431395 snap1000
Cr     -70.64601631       0.13666396      -3.52265602 snap1000
Ni     -62.77943634       0.01211053      -3.51877661 snap1000
Mo     -55.01144837       0.03331197      -3.51118456 snap1000
Ni     -47.07697331      -0.03232540      -3.48730694 snap1000
Ni     -39.34849045       0.03238414      -3.54159491 snap1000
Ni     -31.51183289      -0.02672589      -3.48948740 snap1000
Ni     -23.69303991       0.08514066      -3.51224606 snap1000
Ni     -15.82818437       0.05526439      -3.54152025 snap1000
Ni      -7.97556006       0.03272754      -3.54369725 snap1000
Ni     -75.43232970      -1.45851300      -3.52509766 snap1000
Mo     -67.57280361      -1.50550126      -3.51154735 snap1000
Mo     -59.71416349      -1.58544592      -3.51847213 snap1000
Ni     -51.89269590      -1.57126593      -3.51099929 snap1000
Ni     -44.03467151      -1.59191051      -3.51435271 snap1000
Ni     -36.22131469      -1.57500187      -3.48048409 snap1000
Ni     -28.41135335      -1.55500487      -3.51788661 snap1000
Ni     -20.52290983      -1.50417749      -3.54608720 snap1000
Ni     -12.65157288      -1.54601198      -3.49615975 snap1000
Ni      -4.89397007      -1.50716549      -3.52685424 snap1000
Ni     -72.27869311      -3.05616640      -3.52414538 snap1000
Ni     -64.42604939      -3.15188042      -3.48654207 snap1000
Cr     -56.61820390      -3.13812036      -3.51072333 snap1000
Ni     -48.67113112      -3.21094258      -3.51683134 snap1000
Cr     -40.89574221      -3.15840914      -3.52872872 snap1000
Ni     -33.06936640      -3.15846444      -3.50021124 snap1000
Ni     -25.28957009      -3.11623519      -3.51404891 snap1000
Ni     -17.41508462      -3.13132590      -3.52040089 snap1000
Ni      -9.52034223      -3.17266065      -3.51800793 snap1000
Mo      -1.60038741      -3.00411161      -3.49277222 snap1000
Ni     -74.64052311       0.15076924      -5.28514932 snap1000
Ni     -66.78401435       0.05739698      -5.30150524 snap1000
Ni     -58.89357652      -0.00569602      -5.30247957 snap1000
Ni     -51.08017480      -0.00026734      -5.25490172 snap1000
Ni     -43.26843577       0.01728763      -5.26454339 snap1000
Ni     -35.46131918      -0.02291886      -5.24297514 snap1000
Ni     -27.62026791       0.03351288      -5.24697002 snap1000
Ni     -19.75618411       0.06130337      -5.27286666 snap1000
Ni     -11.88943309       0.02674665      -5.27992280 snap1000
Ni      -4.10343313       0.06403001      -5.28820350 snap1000
Ni     -71.46095777      -1.45932245      -5.28735114 snap1000
Mo     -63.62524123      -1.59165722      -5.28248329 snap1000
Ni     -55.82895901      -1.58473772      -5.30033281 snap1000
Ni     -47.84257134      -1.60036797      -5.27017154 snap1000
Ni     -40.12375560      -1.57331217      -5.23365558 snap1000
Ni     -32.26144061      -1.57888597      -5.25971843 snap1000
Ni     -24.50598214      -1.51505548      -5.24209751 snap1000
Ni     -16.62988673      -1.53860531      -5.27998127 snap1000
Ni      -8.71904191      -1.58014702      -5.27844335 snap1000
Ni      -1.14281986      -1.49683721      -5.30540580 snap1000
Ni     -76.24194681      -2.96477127      -5.27466579 snap1000
Ni     -68.35732418      -3.05264601      -5.33610292 snap1000
Ni     -60.45661852      -3.20960207      -5.30170696 snap1000
Mo     -52.67859039      -3.16600476      -5.27804534 snap1000
Ni     -44.78073080      -3.16298193      -5.27417406 snap1000
Ni     -37.02320483      -3.11759254      -5.26051236 snap1000
Ni     -29.18773927      -3.09444852      -5.27025636 snap1000
Ni     -21.30956694      -3.14289390      -5.29061854 snap1000
Ni     -13.44953579      -3.14151935      -5.27941556 snap1000
Fe      -5.68795042      -3.08741531      -5.27512891 snap1000
Mo     -73.03241820      -0.65213996      -3.52521814 snap1000
Ni     -65.19467299      -0.73367753      -3.51277546 snap1000
Ni     -57.34900819      -0.82197292      -3.50948638 snap1000
Mo     -49.46471824      -0.82514184      -3.51526589 snap1000
Ni     -41.69839435      -0.77670514      -3.53330336 snap1000
Ni     -33.85945683      -0.80785688      -3.48160276 snap1000
Cr     -26.06985838      -0.75080960      -3.53362426 snap1000
Ni     -18.16616725      -0.72224090      -3.55726462 snap1000
Ni     -10.31027470      -0.75477352      -3.53224257 snap1000
Ni      -2.56057440      -0.66808974      -3.53760860 snap1000
Cr     -77.69726228      -2.10729370      -3.51795141 snap1000
Ni     -69.95477647      -2.22455749      -3.52077258 snap1000
Ni     -62.03083254      -2.42438635      -3.50784315 snap1000
Ni     -54.30100516      -2.37491625      -3.51427319 snap1000
Cr     -46.34225296      -2.39516987      -3.51930280 snap1000
Ni     -38.57824952      -2.36235137      -3.50884742 snap1000
Cr     -30.73654340      -2.34625259      -3.51539268 snap1000
Mo     -22.88119286      -2.33463024      -3.52375211 snap1000
Mo     -15.03097865      -2.33566752      -3.50939805 snap1000
Ni      -7.19031397      -2.34574834      -3.54244084 snap1000
Mo    -100.74760784      -7.04726419      -1.76266573 snap1000
Ni     -92.88162924      -7.14689316      -1.74583088 snap1000
Fe     -85.11410890      -7.27296828      -1.75508802 snap1000
Ni     -97.53355852      -5.54019223      -1.74962966 snap1000
Cr     -89.79498417      -5.62703837      -1.75527843 snap1000
Mo     -82.07047362      -5.71821302      -1.77989921 snap1000
Ni    -102.32061230      -4.12748435      -1.75791530 snap1000
Ni     -94.43429073      -3.98063397      -1.71077789 snap1000
Mo     -86.71859316      -4.08247451      -1.76405395 snap1000
Ni     -99.02072664      -6.30900689      -3.54936664 snap1000
Ni     -91.31990983      -6.38427611      -3.50929970 snap1000
Ni     -83.59199685      -6.53493742      -3.55142078 snap1000
Ni     -96.02651102      -4.78499049      -3.52425962 snap1000
Ni     -88.30177970      -4.86865476      -3.51954203 snap1000
Ni     -80.37633897      -4.93090856      -3.54341350 snap1000
Ni     -98.30508300      -3.92714304      -3.52065745 snap1000
Ni     -90.59103565      -4.03970354      -3.51499961 snap1000
Ni     -82.84514294      -4.15159733      -3.57432587 snap1000
Ni     -95.22595678      -6.34927161      -1.73846278 snap1000
Ni     -87.49365140      -6.47241720      -1.76261480 snap1000
Ni     -79.80417970      -6.43182940      -1.74809045 snap1000
Ni     -99.85312570      -4.72342961      -1.76097021 snap1000
Ni     -92.07728473      -4.77622857      -1.73397046 snap1000
Ni     -84.38292429      -4.92850058      -1.75032728 snap1000
Ni     -96.74955405      -7.12365235      -3.52929094 snap1000
Ni     -89.04401977      -7.24467034      -3.49588482 snap1000
Ni     -81.18694118      -7.34604105      -3.52722355 snap1000
Ni    -101.27918822      -5.60842962      -3.62926267 snap1000
Mo     -93.66563034      -5.54319821      -3.51066650 snap1000
Ni     -85.90713003      -5.70954707      -3.52747073 snap1000
Ni     -76.98960128      -4.49477224      -3.52497652 snap1000
Mo     -69.12985076      -4.61570654      -3.52333915 snap1000
Ni     -61.23945109      -4.74594209      -3.51474212 snap1000
Ni     -53.47003824      -4.72028096      -3.51335998 snap1000
Ni     -45.55197973      -4.73205496      -3.54598860 snap1000
Ni     -37.80253228      -4.73352224      -3.48531329 snap1000
Ni     -29.95408478      -4.67330411      -3.52463866 snap1000
Ni     -22.12885333      -4.73560184      -3.51912403 snap1000
Ni     -14.25445869      -4.74394782      -3.48253762 snap1000
Ni      -6.46937190      -4.69069557      -3.50858711 snap1000
Ni     -73.82059177      -6.09498919      -3.52606036 snap1000
Ni     -65.98535050      -6.25180443      -3.49315553 snap1000
Ni     -58.14086235      -6.29681589      -3.51410227 snap1000
Ni     -50.24763090      -6.27429861      -3.51774460 snap1000
Ni     -42.46270611      -6.27729479      -3.52660303 snap1000
Mo     -34.61783315      -6.32911105      -3.45608417 snap1000
Ni     -26.81084686      -6.23267774      -3.48842257 snap1000
Ni     -18.98147157      -6.28901748      -3.48357330 snap1000
Ni     -11.08812238      -6.28737211      -3.48763477 snap1000
Ni      -3.36688768      -6.23011998      -3.48857172 snap1000
Mo     -78.71517033      -3.87546593      -1.73211244 snap1000
Fe     -70.72074802      -3.83091251      -1.72852683 snap1000
Ni     -62.81152498      -3.98261243      -1.74917891 snap1000
Ni     -55.08286832      -3.93803897      -1.76449241 snap1000
Ni     -47.13709210      -3.95394338      -1.76571303 snap1000
Ni     -39.37473335      -3.94105010      -1.79388357 snap1000
Ni     -31.51324483      -3.89499050      -1.77077606 snap1000
Ni     -23.72384550      -3.93215702      -1.76354121 snap1000
Ni     -15.85777824      -3.94135733      -1.75960482 snap1000
Ni      -8.00601623      -3.94812529      -1.76224729 snap1000
Ni     -75.34638790      -5.27023657      -1.77714524 snap1000
Ni     -67.55758757      -5.44969830      -1.73608282 snap1000
Ni     -59.70266277      -5.52194221      -1.75199358 snap1000
Ni     -51.81658923      -5.51246972      -1.72677529 snap1000
Ni     -43.97102394      -5.50158238      -1.74989247 snap1000
Ni     -36.25776074      -5.51175989      -1.73540965 snap1000
Ni     -28.36326156      -5.46079772      -1.75290536 snap1000
Cr     -20.54701413      -5.49121173      -1.76501100 snap1000
Ni     -12.66039654      -5.51608398      -1.75988936 snap1000
Ni      -4.92204033      -5.44785823      -1.77014516 snap1000
Ni     -72.24737521      -6.91385222      -1.75316920 snap1000
Fe     -64.40062078      -7.03526566      -1.75835115 snap1000
Ni     -56.59742580      -7.07874660      -1.77676029 snap1000
Ni     -48.69796253      -7.07009927      -1.75228520 snap1000
Ni     -40.90013721      -7.05461400      -1.74023940 snap1000
Ni     -33.07012252      -7.14070492      -1.71759598 snap1000
Ni     -25.24309989      -7.01819604      -1.73467876 snap1000
Cr     -17.37125902      -7.05006138      -1.76366423 snap1000
Ni      -9.53807640      -7.06340266      -1.75923354 snap1000
Mo      -1.56323668      -6.97044410      -1.77063096 snap1000
Cr     -74.62265352      -3.76790122      -3.52687001 snap1000
Ni     -66.77038770      -3.88590659      -3.48515930 snap1000
Ni     -58.91410938      -3.97395750      -3.51264794 snap1000
Ni     -51.03287941      -3.97696318      -3.50992097 snap1000
Fe     -43.21633953      -3.93234279      -3.52817428 snap1000
Ni     -35.43044495      -3.92944359      -3.47147603 snap1000
Ni     -27.60944205      -3.88865858      -3.49256624 snap1000
Ni     -19.80312165      -3.93679137      -3.50677039 snap1000
Ni     -11.87373939      -3.94203166      -3.47125668 snap1000
Fe      -4.13135660      -3.84037791      -3.49373732 snap1000
Ni     -71.48302699      -5.38335822      -3.52040924 snap1000
Ni     -63.60330987      -5.50500652      -3.49803997 snap1000
Cr     -55.81332646      -5.52247629      -3.50761408 snap1000
Ni     -47.92469310      -5.52310427      -3.54878006 snap1000
Ni     -40.13205408      -5.51003570      -3.51048976 snap1000
Ni     -32.28843473      -5.49229185      -3.54603872 snap1000
Fe     -24.48232368      -5.46789514      -3.51671639 snap1000
Ni     -16.61451212      -5.51289619      -3.49165522 snap1000
Ni      -8.77203915      -5.50000956      -3.50619705 snap1000
Ni      -1.14648447      -5.39930136      -3.52100043 snap1000
Mo     -76.17781367      -6.92236675      -3.53260912 snap1000
Ni     -68.32793937      -7.01504245      -3.51336710 snap1000
Ni     -60.46155001      -7.07896828      -3.52417552 snap1000
Mo     -52.64026151      -7.05758321      -3.51614965 snap1000
Cr     -44.71719908      -7.11711492      -3.57313065 snap1000
Ni     -37.02678107      -7.09195380      -3.50925024 snap1000
Ni     -29.15562696      -7.08936499      -3.52872178 snap1000
Ni     -21.32289911      -7.03487781      -3.50983745 snap1000
Ni     -13.45408085      -7.08308684      -3.50578885 snap1000
Cr      -5.67755043      -7.07358351      -3.46690117 snap1000
Ni     -73.04078089      -4.56864881      -1.76690217 snap1000
Ni     -65.19846127      -4.71221282      -1.73850173 snap1000
Ni     -57.37609455      -4.73435566      -1.77190792 snap1000
Cr     -49.45582611      -4.74980341      -1.74605736 snap1000
Ni     -41.67712235      -4.71669598      -1.76062803 snap1000
Ni     -33.82699074      -4.70746684      -1.73398814 snap1000
Cr     -26.04434370      -4.66393179      -1.75407427 snap1000
Ni     -18.20924756      -4.74136575      -1.76025168 snap1000
Cr     -10.30643695      -4.72787675      -1.75946533 snap1000
Ni      -2.58532349      -4.61062381      -1.77352264 snap1000
Ni     -77.60321183      -6.09231255      -1.76138387 snap1000
Ni     -69.91261718      -6.20613828      -1.74027660 snap1000
Ni     -62.02305670      -6.31007111      -1.76383749 snap1000
Ni     -54.25345737      -6.24976026      -1.76319184 snap1000
Mo     -46.32158455      -6.31770334      -1.76141971 snap1000
Cr     -38.57880361      -6.30009362      -1.75531340 snap1000
Mo     -30.74127797      -6.28857773      -1.76350348 snap1000
Ni     -22.88058825      -6.25237697      -1.74818749 snap1000
Ni     -15.04202780      -6.29822791      -1.75992192 snap1000
Ni      -7.21564370      -6.27650093      -1.76505680 snap1000
520
Lattice="0.0 0.0 -7.04 4e-16 -7.870959280799259 3.5200000000000014 -102.32247065039037 0.0 -6.3e-15" Properties=species:S:1:pos:R:3:frame_label:S:1 pbc="T T T"
Mo    -100.68827113      -3.20177273       0.00168886 snap2000
Ni     -92.89336520      -3.22439952       0.00128755 snap2000
Ni     -85.16686412      -3.32048834       0.06598058 snap2000
Cr     -97.49418643      -1.60513881      -0.01222331 snap2000
Fe     -89.86061797      -1.70949109       0.00475608 snap2000
Ni     -82.06074903      -1.72582536       0.03633961 snap2000
Ni    -102.30961891      -0.12869201      -0.03729861 snap2000
Ni     -94.44337217      -0.06776267       0.00644361 snap2000
Cr     -86.71268527      -0.15425371       0.00501718 snap2000
Ni     -99.00726069      -2.39699394      -1.75721179 snap2000
Ni     -91.36606585      -2.45514708      -1.77553157 snap2000
Mo     -83.62921595      -2.52467768      -1.75902932 snap2000
Ni     -95.96354728      -0.83149381      -1.74490935 snap2000
Ni     -88.30364833      -0.95683396      -1.73370434 snap2000
Mo     -80.03230801      -1.00395535      -1.77814820 snap2000
Ni     -98.26581643      -0.03534041      -1.75330132 snap2000
Fe     -90.61287216      -0.11466804      -1.75447548 snap2000
Ni     -82.70442065      -0.19656090      -1.78571420 snap2000
Ni     -95.20437246      -2.41408654       0.01209172 snap2000
Ni     -87.51396443      -2.51888320       0.02923272 snap2000
Ni     -79.92744689      -2.64520143      -0.00173828 snap2000
Ni     -99.81461458      -0.79495699      -0.01112988 snap2000
Ni     -92.14430931      -0.88140564       0.00642272 snap2000
Ni     -84.39361397      -0.96540626       0.04121554 snap2000
Ni     -96.71245673      -3.19275966      -1.76279873 snap2000
Ni     -89.08316590      -3.28613024      -1.76350362 snap2000
Ni     -81.29544058      -3.38282582      -1.75324561 snap2000
Ni    -101.28290295      -1.64380369      -1.76186035 snap2000
Ni     -93.66443409      -1.64451959      -1.77006827 snap2000
Ni     -85.96692552      -1.73013925      -1.72882115 snap2000
Ni     -77.10203181      -0.66051804      -1.76498426 snap2000
Fe     -69.11622018      -0.69482167      -1.76008349 snap2000
Ni     -61.26647459      -0.72386647      -1.75895422 snap2000
Ni     -53.46099864      -0.75694869      -1.78810794 snap2000
Ni     -45.55101690      -0.85586599      -1.76601827 snap2000
Ni     -37.76598354      -0.74343920      -1.78833428 snap2000
Ni     -29.99573954      -0.73853348      -1.76065970 snap2000
Ni     -22.10689938      -0.75106961      -1.73321443 snap2000
Ni     -14.21300357      -0.74235397      -1.75710798 snap2000
Mo      -6.45562110      -0.69960078      -1.76102654 snap2000
Ni     -73.86709945      -2.28334038      -1.77573685 snap2000
Ni     -66.05360990      -2.30053687      -1.75304001 snap2000
Ni     -58.06734870      -2.39555070      -1.74949162 snap2000
Ni     -50.24095311      -2.36366698      -1.79140572 snap2000
Ni     -42.45090903      -2.38050349      -1.78969498 snap2000
Ni     -34.61015551      -2.36159276      -1.76603508 snap2000
Ni     -26.86467810      -2.33192644      -1.76351403 snap2000
Ni     -18.99045588      -2.31125752      -1.72421737 snap2000
Ni     -11.07708037      -2.34872744      -1.76299822 snap2000
Ni      -3.39434890      -2.26520370      -1.76236028 snap2000
Ni     -78.65379140       0.21876125      -0.00747967 snap2000
Ni     -70.66212763       0.12042562      -0.00029099 snap2000
Ni     -62.84993087       0.06282833       0.02579434 snap2000
Ni     -55.01506665       0.01290085       0.00353058 snap2000
Ni     -47.11025892      -0.06651298      -0.01332830 snap2000
Ni     -39.31489081       0.03817596      -0.00121864 snap2000
Ni     -31.52536774       0.03043096      -0.03278228 snap2000
Mo     -23.75350884       0.11349987       0.00322674 snap2000
Ni     -15.80553021       0.03541444       0.00699459 snap2000
Ni      -8.03361840       0.06342894       0.03075379 snap2000
Ni     -75.42992044      -1.47135200      -0.00137962 snap2000
Cr     -67.58172632      -1.48313901       0.00176629 snap2000
Mo     -59.70104134      -1.57798445       0.00522410 snap2000
Ni     -51.86283148      -1.57553008       0.00694753 snap2000
Ni     -44.01112205      -1.62276316       0.01204576 snap2000
Ni     -36.19166217      -1.55401650      -0.02524055 snap2000
Cr     -28.41652958      -1.51385276      -0.05262059 snap2000
Cr     -20.49682427      -1.52163639      -0.00334623 snap2000
Ni     -12.61186870      -1.56079396       0.00061945 snap2000
Ni      -4.90505371      -1.48998279       0.02904517 snap2000
Ni     -72.27207670      -3.05832833       0.00107145 snap2000
Ni     -64.47010713      -3.14180120      -0.03361100 snap2000
Cr     -56.56314226      -3.16319278       0.00242433 snap2000
Ni     -48.66618411      -3.16104360       0.02304578 snap2000
Ni     -40.90671450      -3.16605556       0.01018607 snap2000
Ni     -33.06889296      -3.15462452      -0.04607787 snap2000
Ni     -25.31867675      -3.11525340       0.00713787 snap2000
Ni     -17.40537795      -3.11178360      -0.00512076 snap2000
Fe      -9.54334738      -3.11350794       0.00956034 snap2000
Mo      -1.63192445      -3.00485586      -0.02831275 snap2000
Ni     -74.63243325       0.12183768      -1.76390534 snap2000
Ni     -66.80131543       0.05935672      -1.76439417 snap2000
Ni     -58.85487921      -0.00466648      -1.75165410 snap2000
Ni     -51.08994007      -0.01475575      -1.81273751 snap2000
Ni     -43.23041620       0.00005686      -1.79304366 snap2000
Ni     -35.40126805      -0.01159431      -1.76628254 snap2000
Ni     -27.61757902       0.02483394      -1.75960989 snap2000
Ni     -19.74745548       0.05086090      -1.71074109 snap2000
Fe     -11.84507586      -0.03903883      -1.76085793 snap2000
Ni      -4.06675172       0.09564206      -1.76213608 snap2000
Ni     -71.45823334      -1.48994039      -1.75553117 snap2000
Mo     -63.64503737      -1.52981747      -1.75455283 snap2000
Ni     -55.79340528      -1.57202206      -1.74864562 snap2000
Cr     -47.85760428      -1.62300746      -1.80960362 snap2000
Ni     -40.10195102      -1.56403795      -1.82252220 snap2000
Cr     -32.32267053      -1.54436765      -1.76375068 snap2000
Ni     -24.55301804      -1.52817615      -1.78128803 snap2000
Ni     -16.60108078      -1.54728319      -1.73569718 snap2000
Fe      -8.80318530      -1.53628405      -1.76188685 snap2000
Ni      -1.17097561      -1.43942327      -1.75973754 snap2000
Ni     -76.22875965      -3.00173910      -1.77015059 snap2000
Ni     -68.37027607      -3.04275410      -1.73116709 snap2000
Ni     -60.49029128      -3.18508703      -1.75882442 snap2000
Mo     -52.65619820      -3.15222203      -1.75898519 snap2000
Ni     -44.76191669      -3.17187749      -1.76343208 snap2000
Ni     -36.99727633      -3.13517881      -1.79289322 snap2000
Ni     -29.20262315      -3.08607681      -1.76106438 snap2000
Ni     -21.31399331      -3.12971438      -1.75696330 snap2000
Ni     -13.40356778      -3.11656845      -1.76674971 snap2000
Ni      -5.68760610      -3.09901239      -1.76055938 snap2000
Mo     -73.03475326      -0.67205601      -0.00084969 snap2000
Ni     -65.25951799      -0.71879270       0.00649634 snap2000
Cr     -57.27951787      -0.79204793       0.02130736 snap2000
Mo     -49.49891202      -0.80205932       0.01701922 snap2000
Mo     -41.66483318      -0.79038123      -0.00246760 snap2000
Ni     -33.82927746      -0.77895164      -0.01974386 snap2000
Ni     -26.11031396      -0.76000498      -0.01050921 snap2000
Ni     -18.17317873      -0.76070456      -0.00395842 snap2000
Ni     -10.30388902      -0.78207048       0.01489572 snap2000
Ni      -2.56602819      -0.64303291       0.01422405 snap2000
Ni     -77.74540489      -2.15720958       0.00123701 snap2000
Ni     -69.90091645      -2.26702423       0.00180942 snap2000
Ni     -62.07872151      -2.38100894      -0.00477180 snap2000
Ni     -54.27035690      -2.33214645      -0.00028403 snap2000
Ni     -46.35746803      -2.38418623      -0.00779154 snap2000
Mo     -38.56272740      -2.34111933      -0.00979559 snap2000
Ni     -30.76174064      -2.31246498      -0.03504280 snap2000
Mo     -22.92751343      -2.40449049      -0.00085437 snap2000
Mo     -14.97782593      -2.35018557      -0.00215676 snap2000
Ni      -7.24351574      -2.30620350       0.02029937 snap2000
Cr    -100.58831187      -7.18248609       1.75259653 snap2000
Fe     -92.89684233      -7.15955943       1.76008192 snap2000
Ni     -85.13163407      -7.28681381       1.77298964 snap2000
Ni     -97.47545328      -5.54405362       1.76402206 snap2000
Ni     -89.84507840      -5.64941919       1.75988242 snap2000
Ni     -82.06047424      -5.68855356       1.71655513 snap2000
Ni    -102.35218314      -4.02824885       1.75646751 snap2000
Ni     -94.42935862      -3.98755097       1.75921647 snap2000
Cr     -86.75557018      -4.11610497       1.74901967 snap2000
Ni     -99.00833292      -6.34468410       0.01331527 snap2000
Ni     -91.37431765      -6.40102110      -0.00421677 snap2000
Ni     -83.58180702      -6.50150501       0.00439662 snap2000
Ni     -95.95428650      -4.76856534      -0.00045106 snap2000
Ni     -88.28415700      -4.89657530       0.03021686 snap2000
Ni     -80.39740400      -4.93882968       0.00354771 snap2000
Ni     -98.25861953      -3.95593816       0.00062202 snap2000
Ni     -90.60395421      -4.05855797       0.00137899 snap2000
Ni     -82.82421109      -4.11387022       0.02914460 snap2000
Ni     -95.19756985      -6.35394615       1.76207642 snap2000
Ni     -87.50648216      -6.46721931       1.78370477 snap2000
Ni     -79.84940169      -6.42340909       1.75567097 snap2000
Ni     -99.78780710      -4.74609972       1.75753278 snap2000
Ni     -92.13064232      -4.81418222       1.75700034 snap2000
Ni     -84.39178630      -4.88370757       1.74675186 snap2000
Ni     -96.71600162      -7.13386643      -0.00116999 snap2000
Ni     -89.08598462      -7.24210132       0.00670637 snap2000
Ni     -81.17427493      -7.32642832      -0.01456617 snap2000
Ni    -101.27808762      -5.65098989       0.11364540 snap2000
Ni     -93.65844742      -5.57933295      -0.00678027 snap2000
Ni     -85.93340382      -5.67876565       0.03819320 snap2000
Ni     -76.99255226      -4.51777985      -0.00148904 snap2000
Cr     -69.16045807      -4.64442443      -0.00379755 snap2000
Ni     -61.29080205      -4.72980995      -0.04180057 snap2000
Ni     -53.45640102      -4.74057364       0.00676265 snap2000
Ni     -45.53592695      -4.70761026       0.00165490 snap2000
Ni     -37.77854441      -4.73061769      -0.01613360 snap2000
Ni     -30.01338468      -4.70370870       0.01260053 snap2000
Ni     -22.11362328      -4.71774926       0.01147931 snap2000
Ni     -14.24937768      -4.75485378      -0.00964894 snap2000
Ni      -6.47991596      -4.64164334      -0.02478942 snap2000
Ni     -73.81043699      -6.13133287       0.00205517 snap2000
Ni     -65.99946447      -6.24410996      -0.03115941 snap2000
Ni     -58.11383115      -6.31838937      -0.02200624 snap2000
Ni     -50.27972864      -6.31494111       0.04044929 snap2000
Cr     -42.42663122      -6.26743081      -0.00506240 snap2000
Ni     -34.62286965      -6.29985212      -0.03861834 snap2000
Ni     -26.84610842      -6.27204766       0.03000924 snap2000
Ni     -18.97179636      -6.26023783       0.00391267 snap2000
Ni     -11.06098156      -6.30902922       0.00517489 snap2000
Ni      -3.37330573      -6.20387911      -0.04636319 snap2000
Mo     -78.69920759      -3.85200443       1.75356788 snap2000
Ni     -70.70094272      -3.84002225       1.72880610 snap2000
Ni     -62.84084194      -3.95401892       1.76471714 snap2000
Ni     -55.05376144      -3.93470644       1.76171201 snap2000
Ni     -47.13435779      -3.94218724       1.76867621 snap2000
Ni     -39.32761377      -3.94846754       1.79118623 snap2000
Ni     -31.56569320      -3.91852332       1.75705561 snap2000
Ni     -23.73011009      -3.93019660       1.77540137 snap2000
Ni     -15.78256331      -3.94847510       1.75420709 snap2000
Ni      -7.99135999      -3.88032829       1.75944241 snap2000
Ni     -75.34845641      -5.30237794       1.76836119 snap2000
Ni     -67.59860438      -5.45586722       1.72706622 snap2000
Mo     -59.70633067      -5.52190010       1.76676386 snap2000
Ni     -51.84155557      -5.52561894       1.72327736 snap2000
Ni     -43.94554823      -5.50701388       1.74236167 snap2000
Mo     -36.18683048      -5.50379067       1.76306428 snap2000
Ni     -28.39604209      -5.50450872       1.76388191 snap2000
Cr     -20.59944892      -5.47040492       1.82257718 snap2000
Mo     -12.65538920      -5.52146817       1.76125597 snap2000
Mo      -4.92926552      -5.43461632       1.75911640 snap2000
Ni     -72.25182212      -6.94001918       1.75457913 snap2000
Ni     -64.45191259      -7.03250335       1.76672246 snap2000
Fe     -56.54467708      -7.08290065       1.76146067 snap2000
Ni     -48.70903584      -7.11604223       1.73528081 snap2000
Ni     -40.88572461      -7.05531223       1.72134304 snap2000
Ni     -33.06845570      -7.07588121       1.75664565 snap2000
Ni     -25.31156713      -7.02577950       1.73468058 snap2000
Ni     -17.37257030      -7.06764371       1.79114614 snap2000
Ni      -9.54731492      -7.05689280       1.76007418 snap2000
Mo      -1.56686771      -6.91808008       1.75764682 snap2000
Ni     -74.62201659      -3.78982598      -0.00328146 snap2000
Ni     -66.83078952      -3.86249353      -0.02557913 snap2000
Ni     -58.88834729      -3.96715463      -0.02258060 snap2000
Ni     -51.02013234      -3.93554377       0.03907014 snap2000
Ni     -43.20656755      -3.93721210       0.00567058 snap2000
Ni     -35.42776117      -3.93111418      -0.05709555 snap2000
Ni     -27.62410409      -3.89134942       0.00345506 snap2000
Ni     -19.82128632      -3.90747556       0.00926245 snap2000
Ni     -11.85708268      -3.90604025       0.00697655 snap2000
Ni      -4.12422984      -3.82845730      -0.01646279 snap2000
Ni     -71.46006284      -5.39766263      -0.00051242 snap2000
Ni     -63.64327309      -5.48786844      -0.02948816 snap2000
Ni     -55.80533748      -5.49206436       0.00191502 snap2000
Ni     -47.91667853      -5.51328149       0.04071622 snap2000
Ni     -40.09978214      -5.49369866       0.00214131 snap2000
Ni     -32.31638761      -5.50592469      -0.01035878 snap2000
Fe     -24.51205172      -5.43518343       0.01282213 snap2000
Ni     -16.57338057      -5.53002754      -0.01251169 snap2000
Cr      -8.78216735      -5.46390661      -0.01616775 snap2000
Ni      -1.15103871      -5.38535787      -0.00633662 snap2000
Mo     -76.18923575      -6.94884601      -0.00166642 snap2000
Ni     -68.34201300      -7.01754492      -0.00600685 snap2000
Ni     -60.49830309      -7.04927498      -0.04028871 snap2000
Cr     -52.68021697      -7.08044987       0.01204148 snap2000
Ni     -44.74375851      -7.11331964      -0.00742510 snap2000
Ni     -36.98584420      -7.07823433      -0.00451290 snap2000
Ni     -29.21017697      -7.06773245       0.03706626 snap2000
Mo     -21.32545740      -7.08140356      -0.01262540 snap2000
Ni     -13.45312618      -7.12293223      -0.00695096 snap2000
Ni      -5.70063144      -6.99823490      -0.06301681 snap2000
Ni     -73.03874747      -4.58698143       1.76558323 snap2000
Mo     -65.25052967      -4.66729829       1.76068369 snap2000
Ni     -57.33321266      -4.73507909       1.77098893 snap2000
Cr     -49.47869228      -4.73694646       1.75612651 snap2000
Ni     -41.64989186      -4.71579352       1.75695881 snap2000
Ni     -33.84084039      -4.73917720       1.75544841 snap2000
Cr     -26.07457824      -4.66627084       1.74960839 snap2000
Mo     -18.18280355      -4.68956683       1.76144781 snap2000
Ni     -10.27496107      -4.70963915       1.75650653 snap2000
Ni      -2.56437991      -4.58135498       1.75934829 snap2000
Ni     -77.63893443      -6.09742411       1.75803424 snap2000
Ni     -69.91985670      -6.20885863       1.72954027 snap2000
Ni     -62.09825010      -6.27799213       1.76523832 snap2000
Ni     -54.22520728      -6.28001731       1.73864842 snap2000
Mo     -46.29098028      -6.33379660       1.75924450 snap2000
Cr     -38.58609511      -6.29462820       1.75173327 snap2000
Cr     -30.77317069      -6.26513078       1.75426284 snap2000
Ni     -22.93043819      -6.23777410       1.75226799 snap2000
Ni     -15.03957857      -6.30744056       1.76384175 snap2000
Ni      -7.28743999      -6.20955461       1.76043605 snap2000
Mo    -100.70090588      -3.20474979      -3.52454036 snap2000
Ni     -92.90228219      -3.22212820      -3.52876496 snap2000
Ni     -85.17170676      -3.31578731      -3.59040395 snap2000
Ni     -97.46399066      -1.61645226      -3.52873380 snap2000
Cr     -89.82153504      -1.70951055      -3.52605115 snap2000
Ni     -82.03196697      -1.74148432      -3.55950023 snap2000
Ni    -102.30947461      -0.13351185      -3.48628306 snap2000
Ni     -94.42855390      -0.07709860      -3.53366508 snap2000
Mo     -86.73971834      -0.17892005      -3.52408489 snap2000
Ni     -98.99360682      -2.39140251      -5.28604755 snap2000
Ni     -91.37237828      -2.45817937      -5.26901836 snap2000
Cr     -83.59558460      -2.52962489      -5.28584828 snap2000
Fe     -95.95702238      -0.84287077      -5.28674647 snap2000
Ni     -88.30209157      -0.94776729      -5.30806028 snap2000
Mo     -79.98365810      -1.00038251      -5.26765457 snap2000
Ni     -98.26539668      -0.03643441      -5.29372472 snap2000
Fe     -90.60819692      -0.11503015      -5.28488914 snap2000
Ni     -82.74019017      -0.20179679      -5.26246888 snap2000
Cr     -95.17806402      -2.42443543      -3.52058243 snap2000
Ni     -87.53608610      -2.53662896      -3.55115718 snap2000
Ni     -79.92531229      -2.68333237      -3.52339982 snap2000
Ni     -99.81301749      -0.79595512      -3.51178773 snap2000
Fe     -92.11785869      -0.87798792      -3.52806243 snap2000
Ni     -84.35464485      -0.96538488      -3.56762418 snap2000
Cr     -96.70559666      -3.20361027      -5.27610153 snap2000
Ni     -89.06247858      -3.29598603      -5.28244935 snap2000
Ni     -81.31145800      -3.36605775      -5.29155121 snap2000
Ni    -101.26270196      -1.62636022      -5.28096243 snap2000
Cr     -93.67643872      -1.64871090      -5.27673305 snap2000
Ni     -85.94883849      -1.75327173      -5.30410058 snap2000
Ni     -77.09938531      -0.65575545      -5.28051418 snap2000
Ni     -69.11339859      -0.71142039      -5.27906321 snap2000
Ni     -61.29169773      -0.75086292      -5.27062376 snap2000
Ni     -53.45677079      -0.75024468      -5.24073543 snap2000
Ni     -45.54287735      -0.84442378      -5.27384381 snap2000
Ni     -37.75838250      -0.78209758      -5.24695405 snap2000
Ni     -29.95627473      -0.71812940      -5.29501875 snap2000
Ni     -22.10897748      -0.75827822      -5.30718100 snap2000
Ni     -14.21446448      -0.73588724      -5.28256098 snap2000
Ni      -6.49013927      -0.73788137      -5.27997374 snap2000
Ni     -73.86109048      -2.28111168      -5.27098643 snap2000
Ni     -66.06352706      -2.28548747      -5.27992548 snap2000
Ni     -58.08250012      -2.40890445      -5.28139842 snap2000
Ni     -50.24874092      -2.39526548      -5.23853836 snap2000
Cr     -42.47212918      -2.39876743      -5.23653771 snap2000
Mo     -34.62766252      -2.37279957      -5.27959525 snap2000
Ni     -26.83917845      -2.31847646      -5.28268523 snap2000
Ni     -18.99260798      -2.31290446      -5.31703618 snap2000
Fe     -11.05263944      -2.35038235      -5.28173348 snap2000
Ni      -3.37366356      -2.28140132      -5.28083299 snap2000
Ni     -78.65853822       0.23140708      -3.51795964 snap2000
Ni     -70.67524060       0.10351632      -3.52046623 snap2000
Ni     -62.85653187       0.06304945      -3.53596567 snap2000
Ni     -54.99188605       0.02527290      -3.51265797 snap2000
Ni     -47.12045525      -0.06196071      -3.50522141 snap2000
Ni     -39.32161756       0.02127307      -3.51778191 snap2000
Ni     -31.53323683       0.03015544      -3.49526973 snap2000
Ni     -23.76686415       0.05964795      -3.51860120 snap2000
Fe     -15.80129174       0.04276199      -3.52323522 snap2000
Ni      -8.03580290       0.06550181      -3.55282166 snap2000
Ni     -75.43034060      -1.48220390      -3.52394336 snap2000
Cr     -67.59471454      -1.49899835      -3.51895964 snap2000
Mo     -59.68734481      -1.57490398      -3.51444488 snap2000
Ni     -51.85336739      -1.55794253      -3.51854397 snap2000
Ni     -43.99826872      -1.61230204      -3.52957062 snap2000
Ni     -36.21292322      -1.56409797      -3.49957583 snap2000
Ni     -28.40250735      -1.52060279      -3.49285161 snap2000
Ni     -20.52097856      -1.56887815      -3.51569950 snap2000
Ni     -12.62012491      -1.55917490      -3.52337775 snap2000
Ni      -4.90586874      -1.48946436      -3.55138429 snap2000
Ni     -72.26264959      -3.07552587      -3.52086145 snap2000
Ni     -64.45737974      -3.14091342      -3.47760014 snap2000
Cr     -56.56041086      -3.17433351      -3.50947821 snap2000
Ni     -48.67819687      -3.17057464      -3.54197993 snap2000
Ni     -40.88383307      -3.15559129      -3.52831500 snap2000
Ni     -33.06416876      -3.15476454      -3.47919341 snap2000
Ni     -25.31790329      -3.10347383      -3.52423174 snap2000
Ni     -17.39289662      -3.11909128      -3.51611367 snap2000
Ni      -9.53511945      -3.12624638      -3.53359456 snap2000
Mo      -1.62351091      -3.00265890      -3.49524531 snap2000
Ni     -74.63049419       0.12728344      -5.28070780 snap2000
Ni     -66.81228084       0.04778254      -5.27016082 snap2000
Ni     -58.87441594       0.00985895      -5.27631924 snap2000
Ni     -51.07697001      -0.00096590      -5.21123666 snap2000
Ni     -43.22224854      -0.01057224      -5.25276356 snap2000
Ni     -35.42256035       0.00513512      -5.27828250 snap2000
Ni     -27.62919546      -0.00442849      -5.28814866 snap2000
Ni     -19.74122965       0.03625006      -5.33590684 snap2000
Ni     -11.85443649      -0.03432957      -5.28117974 snap2000
Ni      -4.10730717       0.10031978      -5.28099516 snap2000
Ni     -71.45344834      -1.48462624      -5.28615554 snap2000
Mo     -63.66446405      -1.56595423      -5.27625828 snap2000
Ni     -55.78809821      -1.58473742      -5.27825271 snap2000
Ni     -47.87957403      -1.60158552      -5.25388590 snap2000
Ni     -40.10845158      -1.56987813      -5.22317678 snap2000
Ni     -32.26527799      -1.55341255      -5.28244027 snap2000
Ni     -24.54698559      -1.52235915      -5.25671094 snap2000
Ni     -16.59997287      -1.54585420      -5.30642999 snap2000
Cr      -8.78266040      -1.53966245      -5.27374583 snap2000
Ni      -1.13606656      -1.47847569      -5.28412809 snap2000
Ni     -76.22760115      -3.00350738      -5.27377356 snap2000
Ni     -68.35831092      -3.05942266      -5.30870505 snap2000
Ni     -60.49693863      -3.16389925      -5.26986773 snap2000
Mo     -52.68581091      -3.13782844      -5.27010703 snap2000
Ni     -44.76640365      -3.17296794      -5.27655167 snap2000
Ni     -37.00727035      -3.13144755      -5.25175232 snap2000
Mo     -29.20431581      -3.10246635      -5.27026908 snap2000
Ni     -21.31213107      -3.13336896      -5.27588424 snap2000
Ni     -13.40430291      -3.12218264      -5.27418568 snap2000
Cr      -5.70157843      -3.03161517      -5.27993526 snap2000
Mo     -73.03769233      -0.68135277      -3.52323692 snap2000
Ni     -65.26148352      -0.72969014      -3.51884268 snap2000
Ni     -57.29583940      -0.82040669      -3.52411318 snap2000
Ni     -49.45571891      -0.82330864      -3.50109131 snap2000
Ni     -41.68713103      -0.77418818      -3.52953038 snap2000
Ni     -33.83877284      -0.77965533      -3.50567707 snap2000
Cr     -26.09748133      -0.76348276      -3.50756007 snap2000
Mo     -18.17839361      -0.73873741      -3.52095677 snap2000
Ni     -10.30939806      -0.78335363      -3.53474155 snap2000
Ni      -2.56412652      -0.64441820      -3.53773621 snap2000
Ni     -77.75152227      -2.15537904      -3.52622338 snap2000
Ni     -69.90322089      -2.24931798      -3.52214295 snap2000
Ni     -62.07262021      -2.37817157      -3.50484844 snap2000
Ni     -54.27546181      -2.34278080      -3.50832612 snap2000
Ni     -46.32657181      -2.39466755      -3.51582773 snap2000
Cr     -38.52896633      -2.35362654      -3.50369436 snap2000
Ni     -30.77780865      -2.30794685      -3.48405162 snap2000
Mo     -22.92658149      -2.32210135      -3.51812905 snap2000
Mo     -15.01085695      -2.33055141      -3.52011214 snap2000
Ni      -7.24426610      -2.30991926      -3.54025063 snap2000
Mo    -100.70875036      -7.08515370      -1.75888334 snap2000
Ni     -92.89902176      -7.17174135      -1.76313287 snap2000
Ni     -85.16606365      -7.25315396      -1.77650383 snap2000
Ni     -97.48758526      -5.55593855      -1.76721330 snap2000
Fe     -89.83375746      -5.63209164      -1.76584575 snap2000
Ni     -82.06238256      -5.68647086      -1.71859771 snap2000
Ni    -102.29616142      -4.14546362      -1.75982045 snap2000
Ni     -94.42304643      -3.99316835      -1.76302309 snap2000
Mo     -86.73064464      -4.10624549      -1.75791139 snap2000
Ni     -99.00390922      -6.34598218      -3.53583525 snap2000
Ni     -91.36359494      -6.39957182      -3.51902260 snap2000
Mo     -83.53592127      -6.48828422      -3.52575730 snap2000
Ni     -95.95245269      -4.76861716      -3.52215651 snap2000
Ni     -88.30055815      -4.88000301      -3.55418871 snap2000
Ni     -80.45813671      -4.95832289      -3.52818564 snap2000
Ni     -98.26646554      -3.96789634      -3.52028762 snap2000
Ni     -90.60091487      -4.03908886      -3.52835346 snap2000
Ni     -82.81285831      -4.10017066      -3.55125943 snap2000
Ni     -95.19883568      -6.36551836      -1.76943291 snap2000
Ni     -87.51696396      -6.47498154      -1.78806636 snap2000
Ni     -79.84215439      -6.40851577      -1.76098537 snap2000
Ni     -99.82558849      -4.76058548      -1.75975809 snap2000
Fe     -92.12521162      -4.81142701      -1.76244585 snap2000
Ni     -84.37682241      -4.90740393      -1.74159598 snap2000
Cr     -96.71997244      -7.11830607      -3.52676223 snap2000
Ni     -89.05032503      -7.23445443      -3.52866142 snap2000
Ni     -81.15342611      -7.34148658      -3.51156812 snap2000
Ni    -101.27723360      -5.65116680      -3.63726412 snap2000
Ni     -93.65911155      -5.57984085      -3.51979382 snap2000
Ni     -85.95020219      -5.69424064      -3.55562919 snap2000
Ni     -76.97469077      -4.51804215      -3.52408518 snap2000
Mo     -69.14933375      -4.64552563      -3.51613959 snap2000
Ni     -61.29554127      -4.73338420      -3.46761578 snap2000
Ni     -53.47305280      -4.72723055      -3.51442225 snap2000
Ni     -45.53584124      -4.72159303      -3.52145779 snap2000
Ni     -37.78470651      -4.72367178      -3.50686420 snap2000
Ni     -30.01420096      -4.71240711      -3.53512596 snap2000
Ni     -22.14815119      -4.72662808      -3.52193092 snap2000
Ni     -14.24892730      -4.74166409      -3.50727217 snap2000
Ni      -6.47673023      -4.64397238      -3.49414828 snap2000
Ni     -73.82011977      -6.12013511      -3.52367135 snap2000
Ni     -66.02116426      -6.23091700      -3.48173141 snap2000
Ni     -58.10496921      -6.32598002      -3.48972764 snap2000
Ni     -50.26493819      -6.29989504      -3.55629189 snap2000
Fe     -42.42777368      -6.26594994      -3.51825254 snap2000
Ni     -34.62121971      -6.30776797      -3.48592356 snap2000
Cr     -26.80317985      -6.30241431      -3.55727927 snap2000
Ni     -18.97778753      -6.28321657      -3.53056864 snap2000
Ni     -11.06110050      -6.31375904      -3.52639052 snap2000
Ni      -3.37301751      -6.20349062      -3.47679177 snap2000
Mo     -78.68752536      -3.84702931      -1.75868809 snap2000
Ni     -70.69779921      -3.83536055      -1.72953861 snap2000
Ni     -62.88030595      -3.95851368      -1.75462438 snap2000
Ni     -55.05254074      -3.93019762      -1.74975265 snap2000
Ni     -47.11007048      -3.92358686      -1.76653476 snap2000
Ni     -39.34259773      -3.92838843      -1.79372847 snap2000
Ni     -31.53362361      -3.92634557      -1.76146095 snap2000
Ni     -23.72605192      -3.92125364      -1.77450896 snap2000
Ni     -15.78566275      -3.95521619      -1.75475248 snap2000
Ni      -8.01424525      -3.87379421      -1.75612263 snap2000
Ni     -75.34785861      -5.29671827      -1.77605428 snap2000
Ni     -67.56999983      -5.43826033      -1.72776797 snap2000
Cr     -59.69344207      -5.51592799      -1.75368756 snap2000
Ni     -51.86356396      -5.53618968      -1.70945399 snap2000
Ni     -43.95740133      -5.50857590      -1.74412925 snap2000
Ni     -36.20013512      -5.51705635      -1.76794131 snap2000
Mo     -28.42000901      -5.49259874      -1.75614978 snap2000
Ni     -20.57883485      -5.47790588      -1.79847719 snap2000
Mo     -12.64372279      -5.52249309      -1.76228957 snap2000
Cr      -4.91021932      -5.41461696      -1.76101998 snap2000
Ni     -72.24886883      -6.94151736      -1.75710608 snap2000
Ni     -64.43824582      -7.01811986      -1.75826087 snap2000
Ni     -56.53938818      -7.10101075      -1.75479028 snap2000
Ni     -48.69937621      -7.11934973      -1.71986240 snap2000
Ni     -40.88895910      -7.05496462      -1.72412924 snap2000
Ni     -33.07952915      -7.08802318      -1.76162654 snap2000
Ni     -25.34191233      -7.02936592      -1.73301891 snap2000
Ni     -17.36237257      -7.06932504      -1.79443937 snap2000
Ni      -9.56450179      -7.04680839      -1.76045775 snap2000
Mo      -1.54816330      -6.95285727      -1.76138586 snap2000
Cr     -74.61888935      -3.78675524      -3.53146006 snap2000
Ni     -66.80546042      -3.84478160      -3.48649020 snap2000
Ni     -58.89074801      -3.96777609      -3.48514966 snap2000
Ni     -51.05842714      -3.97743894      -3.54708045 snap2000
Fe     -43.20911356      -3.93180890      -3.52757831 snap2000
Ni     -35.40865296      -3.94150110      -3.46803913 snap2000
Ni     -27.60425524      -3.91418744      -3.53244599 snap2000
Ni     -19.78888118      -3.89675623      -3.53064941 snap2000
Ni     -11.84318125      -3.90940831      -3.52827375 snap2000
Ni      -4.12331659      -3.82740031      -3.50632007 snap2000
Ni     -71.48573354      -5.40914025      -3.52018208 snap2000
Ni     -63.64931050      -5.48925643      -3.48123448 snap2000
Ni     -55.79303498      -5.50943550      -3.50973481 snap2000
Ni     -47.92482249      -5.53586201      -3.55482558 snap2000
Ni     -40.11194213      -5.51778372      -3.52449647 snap2000
Ni     -32.31696868      -5.50712638      -3.51440647 snap2000
Ni     -24.55157604      -5.42539626      -3.53824416 snap2000
Ni     -16.56849376      -5.50733080      -3.50971619 snap2000
Cr      -8.78251866      -5.45835301      -3.50519355 snap2000
Ni      -1.14919259      -5.38501968      -3.51709890 snap2000
Mo     -76.18698070      -6.95308867      -3.52432604 snap2000
Ni     -68.33258141      -7.02995422      -3.51242612 snap2000
Ni     -60.49184832      -7.05035426      -3.46779613 snap2000
Mo     -52.63246045      -7.07694771      -3.51737054 snap2000
Ni     -44.71930680      -7.12822438      -3.51397088 snap2000
Ni     -36.99007442      -7.09132221      -3.51751654 snap2000
Ni     -29.19364709      -7.06452514      -3.56186472 snap2000
Ni     -21.33039484      -7.05244862      -3.51979340 snap2000
Ni     -13.45668487      -7.12013593      -3.51384076 snap2000
Ni      -5.70010527      -6.99980465      -3.45922060 snap2000
Fe     -73.03032078      -4.58721941      -1.75681028 snap2000
Cr     -65.22846612      -4.68455639      -1.75138332 snap2000
Ni     -57.34717359      -4.74454732      -1.75827991 snap2000
Mo     -49.47902403      -4.74724947      -1.75268518 snap2000
Ni     -41.65776347      -4.72090562      -1.75442344 snap2000
Cr     -33.84580076      -4.73747147      -1.76045591 snap2000
Ni     -26.05759317      -4.68568313      -1.76175452 snap2000
Mo     -18.19083194      -4.69762605      -1.76272623 snap2000
Ni     -10.28377602      -4.69048330      -1.75970449 snap2000
Ni      -2.58825385      -4.59730758      -1.76284572 snap2000
Ni     -77.63499806      -6.09912300      -1.76379114 snap2000
Ni     -69.90701937      -6.20946287      -1.72817308 snap2000
Cr     -62.07602852      -6.28039327      -1.75426878 snap2000
Ni     -54.23558922      -6.28546952      -1.72557834 snap2000
Mo     -46.32397085      -6.31912440      -1.75820306 snap2000
Fe     -38.55023991      -6.29122876      -1.75427732 snap2000
Fe     -30.79589221      -6.29233593      -1.76138338 snap2000
Ni     -22.95356983      -6.23636483      -1.75034892 snap2000
Cr     -15.07679175      -6.32059433      -1.76666091 snap2000
Ni      -7.26540388      -6.21568615      -1.76153092 snap2000
520
Lattice="0.0 0.0 -7.04 4e-16 -7.870959280799259 3.5200000000000014 -102.32247065039037 0.0 -6.3e-15" Properties=species:S:1:pos:R:3:frame_label:S:1 pbc="T T T"
Mo    -100.69541067      -3.20866396       0.00022936 final
Ni     -92.93408229      -3.24909574       0.00636541 final
Ni     -85.14436619      -3.32575268       0.02335075 final
Ni     -97.49257905      -1.61001837      -0.00189034 final
Cr     -89.86186134      -1.72205208       0.00688605 final
Ni     -82.05886380      -1.73412104      -0.00684793 final
Ni    -102.29964263      -0.13611068      -0.03809385 final
Fe     -94.43597333      -0.06823511      -0.02410244 final
Cr     -86.70320332      -0.16961392       0.00043549 final
Ni     -99.01143907      -2.40826072      -1.76219067 final
Ni     -91.40825593      -2.47468181      -1.73025310 final
Ni     -83.61486956      -2.53467385      -1.75822626 final
Ni     -95.96577550      -0.84556939      -1.76144302 final
Ni     -88.27348031      -0.95401120      -1.68798880 final
Mo     -79.98572988      -1.01940974      -1.77483832 final
Ni     -98.27867020      -0.02871226      -1.76159112 final
Ni     -90.61279391      -0.11721882      -1.73522617 final
Ni     -82.70881297      -0.21325769      -1.77097022 final
Ni     -95.20679234      -2.42349407       0.00304568 final
Ni     -87.50209585      -2.52448383       0.02674218 final
Ni     -79.93416758      -2.65139839       0.00605988 final
Ni     -99.81199619      -0.80008033      -0.01321930 final
Ni     -92.15917375      -0.89270730      -0.01986163 final
Ni     -84.37840161      -0.98271837       0.00595017 final
Ni     -96.71903823      -3.19921991      -1.76112820 final
Ni     -89.09399315      -3.29941189      -1.72279845 final
Ni     -81.32459133      -3.34147365      -1.75998206 final
Ni    -101.28193329      -1.64537704      -1.75843091 final
Ni     -93.69367445      -1.65788468      -1.75887981 final
Ni     -85.92727804      -1.74348218      -1.72667797 final
Ni     -77.09089954      -0.65425946      -1.76277190 final
Ni     -69.12352429      -0.67401874      -1.72601138 final
Ni     -61.25282403      -0.72555566      -1.75150469 final
Ni     -53.44930101      -0.76298696      -1.78795773 final
Ni     -45.56066765      -0.87082758      -1.76163786 final
Ni     -37.77710662      -0.77053824      -1.79310846 final
Ni     -29.98321693      -0.74648508      -1.76161795 final
Ni     -22.13818836      -0.72198845      -1.72522679 final
Ni     -14.21438288      -0.74371309      -1.76811911 final
Mo      -6.44659890      -0.69074407      -1.75975653 final
Ni     -73.88706252      -2.29958697      -1.74471725 final
Ni     -66.01966589      -2.31439835      -1.72690787 final
Ni     -58.07790025      -2.39329730      -1.75699531 final
Ni     -50.23949705      -2.35097173      -1.75649243 final
Ni     -42.46048656      -2.38880954      -1.79480450 final
Ni     -34.62992945      -2.37628020      -1.77819170 final
Ni     -26.85546917      -2.34958289      -1.76685927 final
Ni     -19.00565396      -2.30935591      -1.72014767 final
Ni     -11.07553315      -2.34762374      -1.76539451 final
Ni      -3.38471509      -2.25556847      -1.76115492 final
Ni     -78.64356217       0.22169758      -0.00335128 final
Ni     -70.66124162       0.11409365      -0.00119265 final
Ni     -62.84696843       0.06735835       0.02001477 final
Ni     -55.01090764       0.02171668       0.00694520 final
Ni     -47.14385501      -0.06997133      -0.00263954 final
Fe     -39.30060702       0.04009908      -0.00441769 final
Fe     -31.52609533       0.03434884      -0.01610758 final
Ni     -23.73239003       0.07806384      -0.00204509 final
Ni     -15.82537899       0.03296468      -0.00092455 final
Ni      -8.01175562       0.06005855       0.04442820 final
Ni     -75.43267274      -1.48876485       0.00365480 final
Ni     -67.58784616      -1.47892809      -0.01302676 final
Mo     -59.66753210      -1.57845299       0.00662168 final
Ni     -51.82282321      -1.56614471       0.01337850 final
Ni     -44.01865943      -1.63004790       0.00119069 final
Fe     -36.19143957      -1.54999540      -0.03011099 final
Ni     -28.40000150      -1.52530060      -0.03480037 final
Ni     -20.54508712      -1.51782413       0.00174446 final
Ni     -12.60615137      -1.55752372       0.00604430 final
Ni      -4.90004684      -1.47558531       0.02803089 final
Ni     -72.29509564      -3.08456557      -0.03846581 final
Ni     -64.43806259      -3.14527245      -0.03019264 final
Ni     -56.55804642      -3.17887352       0.00003346 final
Ni     -48.67764616      -3.13136113       0.03036967 final
Ni     -40.89784274      -3.17939901      -0.00795669 final
Ni     -33.06650582      -3.16248162      -0.03985141 final
Ni     -25.32012812      -3.11657893      -0.00697374 final
Ni     -17.41784833      -3.11086498       0.00003378 final
Ni      -9.51931256      -3.13048376      -0.00460768 final
Mo      -1.60948883      -2.99403145      -0.02726327 final
Ni     -74.63672359       0.11532963      -1.76222809 final
Ni     -66.78777645       0.11911926      -1.72865501 final
Ni     -58.85706827       0.00331118      -1.75163774 final
Ni     -51.04605013      -0.03952267      -1.76776945 final
Cr     -43.23273078      -0.00182853      -1.79087798 final
Ni     -35.41465489       0.01995101      -1.76786444 final
Fe     -27.60753038       0.01897430      -1.75753642 final
Ni     -19.77608371       0.03532377      -1.69738816 final
Ni     -11.84135076      -0.03771950      -1.75966371 final
Ni      -4.06172850       0.10297500      -1.76162894 final
Ni     -71.46115103      -1.48449134      -1.75054812 final
Mo     -63.62252859      -1.52234036      -1.75153570 final
Fe     -55.78529490      -1.56297578      -1.75616402 final
Ni     -47.91061868      -1.60163942      -1.74439118 final
Ni     -40.09856246      -1.57827844      -1.82549951 final
Cr     -32.29238252      -1.55258405      -1.76382361 final
Ni     -24.54749029      -1.51605784      -1.75946912 final
Ni     -16.62445799      -1.54828630      -1.72609739 final
Ni      -8.77941154      -1.54382765      -1.75990559 final
Ni      -1.16869927      -1.43133164      -1.76225129 final
Ni     -76.20580688      -2.98380756      -1.77869334 final
Ni     -68.37936561      -3.08648835      -1.73071034 final
Ni     -60.49829994      -3.18047364      -1.75953514 final
Mo     -52.63075713      -3.13982080      -1.75366643 final
Ni     -44.77592991      -3.18064934      -1.77195559 final
Ni     -36.98623062      -3.12185887      -1.79243257 final
Ni     -29.18568981      -3.07969995      -1.75871542 final
Ni     -21.34909406      -3.12312394      -1.75952976 final
Ni     -13.39931218      -3.11071371      -1.77713719 final
Ni      -5.68900989      -3.08739275      -1.76071337 final
Mo     -73.04509356      -0.67354754      -0.00993932 final
Ni     -65.23650827      -0.71348587       0.00116890 final
Ni     -57.30433673      -0.79482003       0.01935135 final
Cr     -49.49271463      -0.80288430      -0.00202568 final
Ni     -41.64155234      -0.78501076       0.00443395 final
Ni     -33.83747191      -0.76628228      -0.04034201 final
Fe     -26.06996617      -0.75080622      -0.01370597 final
Cr     -18.16886635      -0.76244089       0.00002577 final
Ni     -10.29652019      -0.78631765       0.01026098 final
Ni      -2.55906405      -0.63685646       0.01492334 final
Ni     -77.73162389      -2.17733116      -0.03046412 final
Ni     -69.91286220      -2.28471344      -0.01865956 final
Ni     -62.05638534      -2.37273670      -0.00407745 final
Ni     -54.23941994      -2.31364716       0.00530756 final
Cr     -46.36272906      -2.38904550       0.00848704 final
Mo     -38.55790763      -2.34889814       0.00424744 final
Ni     -30.76015515      -2.31432449      -0.02855084 final
Mo     -22.95796901      -2.33016534       0.00116194 final
Mo     -14.97963289      -2.34999025       0.00235857 final
Ni      -7.23162056      -2.29960034       0.01764128 final
Cr    -100.58004617      -7.18809404       1.75804751 final
Cr     -92.91663335      -7.16554658       1.76323492 final
Ni     -85.16116165      -7.28395639       1.80114107 final
Ni     -97.47689485      -5.54249254       1.75668494 final
Cr     -89.85431345      -5.65393272       1.76202406 final
Ni     -82.04701038      -5.67287157       1.73584721 final
Ni    -102.34134915      -4.03819956       1.75784674 final
Cr     -94.44029639      -4.00422798       1.76856874 final
Cr     -86.72658962      -4.09881657       1.75634064 final
Ni     -99.00768861      -6.34691856       0.01388838 final
Ni     -91.38126544      -6.42626285       0.01772685 final
Mo     -83.60547472      -6.49165377      -0.00024854 final
Ni     -95.96130042      -4.77562154      -0.00186338 final
Ni     -88.30028843      -4.88899146       0.04720636 final
Ni     -80.42727783      -4.93509192       0.00071999 final
Ni     -98.27259263      -3.97224448      -0.00481067 final
Ni     -90.61475081      -4.07517186       0.01725558 final
Cr     -82.81478634      -4.08721102       0.00101225 final
Ni     -95.19440582      -6.34828714       1.76248103 final
Ni     -87.51868731      -6.44762779       1.79143526 final
Ni     -79.84832057      -6.42971359       1.74358097 final
Ni     -99.78810339      -4.75775408       1.75735059 final
Ni     -92.15171693      -4.84266868       1.75378319 final
Ni     -84.39225086      -4.86178016       1.77193414 final
Ni     -96.72442910      -7.13357991      -0.00013785 final
Ni     -89.07209145      -7.20422465       0.00612221 final
Ni     -81.16083273      -7.30245498      -0.00395160 final
Ni    -101.27897165      -5.66246040       0.11088648 final
Ni     -93.67851546      -5.59152570       0.00941481 final
Ni     -85.96849484      -5.66660391       0.03291953 final
Ni     -76.96829134      -4.51066997      -0.02179352 final
Cr     -69.11962835      -4.67143522      -0.05616020 final
Ni     -61.29133246      -4.72105513      -0.02831478 final
Ni     -53.46296043      -4.73348430       0.00099634 final
Ni     -45.54080655      -4.70727026       0.00268108 final
Ni     -37.77358762      -4.72742363       0.03581930 final
Ni     -30.00561860      -4.70380235       0.00514575 final
Ni     -22.17337131      -4.70846711       0.00153776 final
Ni     -14.24626847      -4.74660437       0.00669291 final
Ni      -6.48280283      -4.63281691      -0.03974853 final
Ni     -73.80426543      -6.10908203      -0.00962988 final
Fe     -66.01695269      -6.23421943      -0.03029658 final
Ni     -58.10643908      -6.30989877      -0.03118595 final
Ni     -50.26921153      -6.35126997       0.03042888 final
Cr     -42.42501878      -6.27439122       0.00232748 final
Ni     -34.63074757      -6.30029565       0.02648100 final
Ni     -26.81921868      -6.28286108       0.01288924 final
Ni     -19.00197560      -6.27336612      -0.00223098 final
Ni     -11.06626406      -6.31547576      -0.00903281 final
Ni      -3.36428543      -6.20150318      -0.04390136 final
Mo     -78.70458671      -3.85549392       1.75292735 final
Mo     -70.70650619      -3.85485558       1.77085334 final
Fe     -62.84054980      -3.94670391       1.76747847 final
Ni     -55.03826234      -3.93637773       1.75831842 final
Ni     -47.12901590      -3.92056728       1.76237943 final
Ni     -39.34920699      -3.93005911       1.79690071 final
Ni     -31.59544294      -3.91603030       1.75862942 final
Ni     -23.74895728      -3.93145204       1.77228774 final
Ni     -15.80271971      -3.94804838       1.75157612 final
Ni      -7.99334911      -3.86860750       1.76445575 final
Ni     -75.36799209      -5.31449461       1.75560853 final
Ni     -67.61421092      -5.43861028       1.76543581 final
Mo     -59.70270694      -5.52526392       1.76206607 final
Ni     -51.83089765      -5.52810214       1.73380000 final
Ni     -43.95666629      -5.50568029       1.75590559 final
Cr     -36.20908960      -5.51121403       1.76407781 final
Ni     -28.40475907      -5.50340545       1.75582369 final
Ni     -20.61363287      -5.49377774       1.79813482 final
Mo     -12.65154871      -5.52594377       1.76007704 final
Mo      -4.91064264      -5.42058992       1.75633220 final
Ni     -72.23283385      -6.92293478       1.75702644 final
Ni     -64.43333276      -7.02351145       1.76631672 final
Ni     -56.55590944      -7.06831409       1.76850277 final
Ni     -48.71845491      -7.12328871       1.76797419 final
Ni     -40.87359850      -7.05905071       1.72225020 final
Ni     -33.05445504      -7.06516648       1.74213661 final
Ni     -25.28361736      -7.03211148       1.77120834 final
Ni     -17.39899334      -7.08169891       1.79885142 final
Ni      -9.53603926      -7.05854493       1.75147664 final
Mo      -1.54959670      -6.91075572       1.75891325 final
Cr     -74.63562686      -3.79232374       0.03146885 final
Ni     -66.80823856      -3.88230847      -0.03892328 final
Ni     -58.89867098      -3.97771023      -0.03562562 final
Fe     -51.01723189      -3.94451611       0.03744545 final
Ni     -43.20834405      -3.94798059      -0.00142563 final
Ni     -35.43130290      -3.94929922       0.01544411 final
Ni     -27.61736114      -3.89206178      -0.00173624 final
Ni     -19.84331730      -3.90935777       0.00679819 final
Ni     -11.83980353      -3.91095970       0.00209933 final
Ni      -4.11318247      -3.82279643      -0.02512884 final
Ni     -71.45032328      -5.42115163      -0.03126347 final
Ni     -63.64652592      -5.48491451      -0.02915235 final
Cr     -55.80724229      -5.50793309       0.01330611 final
Ni     -47.93007139      -5.51248623       0.04314626 final
Ni     -40.10365593      -5.49900560       0.00319248 final
Cr     -32.31771836      -5.50749111       0.00240682 final
Ni     -24.50804046      -5.46984521       0.00437038 final
Ni     -16.60561317      -5.52247951      -0.00112871 final
Cr      -8.78015260      -5.46046937      -0.00477041 final
Ni      -1.14745508      -5.37599901      -0.00695028 final
Mo     -76.17616739      -6.94617154      -0.00572310 final
Ni     -68.34834292      -6.97322892      -0.00887016 final
Ni     -60.49152789      -7.05309810      -0.02549444 final
Ni     -52.65365898      -7.09022882       0.00337422 final
Ni     -44.75914431      -7.12207910      -0.00611309 final
Ni     -36.97792718      -7.07428210       0.03855758 final
Ni     -29.19895956      -7.07092962       0.02934729 final
Mo     -21.36150779      -7.05689388      -0.00055672 final
Ni     -13.43491223      -7.13152778      -0.00944165 final
Ni      -5.69066942      -6.98949384      -0.06155445 final
Ni     -73.06270809      -4.60536381       1.75192839 final
Mo     -65.24297890      -4.67354769       1.75741596 final
Ni     -57.32649738      -4.75019397       1.76982206 final
Ni     -49.47713482      -4.73561743       1.76348138 final
Ni     -41.66095569      -4.72340516       1.76454636 final
Ni     -33.87550567      -4.74823351       1.75671502 final
Ni     -26.07244498      -4.69092071       1.76880903 final
Mo     -18.21350387      -4.70081250       1.76447990 final
Ni     -10.27058895      -4.69907551       1.75244111 final
Ni      -2.55317278      -4.57653515       1.75820604 final
Ni     -77.64137285      -6.09775532       1.75442467 final
Ni     -69.89290928      -6.21982655       1.76354439 final
Ni     -62.09716405      -6.27102498       1.76892184 final
Ni     -54.25566662      -6.26851938       1.74340471 final
Mo     -46.30935238      -6.34196616       1.76282770 final
Ni     -38.53296948      -6.27972573       1.75344757 final
Ni     -30.75819433      -6.26431767       1.75159102 final
Ni     -22.96320880      -6.25619707       1.79634006 final
Ni     -15.04734104      -6.31005589       1.76062140 final
Ni      -7.26395874      -6.20497629       1.75900814 final
Mo    -100.69063819      -3.20805883      -3.52365937 final
Ni     -92.90619798      -3.23238535      -3.53288700 final
Ni     -85.15284678      -3.30963008      -3.54588476 final
Cr     -97.49508178      -1.61297419      -3.52235178 final
Mo     -89.83856276      -1.70894460      -3.52473007 final
Cr     -82.01755921      -1.69974363      -3.51822464 final
Ni    -102.29905990      -0.13581506      -3.48511304 final
Ni     -94.44332452      -0.06270425      -3.49895305 final
Mo     -86.73456224      -0.17777983      -3.52081799 final
Ni     -99.00637687      -2.40631901      -5.28196954 final
Ni     -91.38470114      -2.47594183      -5.31757179 final
Ni     -83.59640196      -2.52302753      -5.28070039 final
Ni     -95.97056299      -0.83338403      -5.28115717 final
Ni     -88.28362541      -0.94431913      -5.35298172 final
Mo     -79.99778178      -1.01363111      -5.27027409 final
Ni     -98.28444364      -0.03116825      -5.28089593 final
Ni     -90.61138263      -0.11280403      -5.31350831 final
Ni     -82.70831185      -0.21722073      -5.27134359 final
Ni     -95.20077950      -2.42074900      -3.52465088 final
Ni     -87.49221726      -2.54348416      -3.55410046 final
Ni     -79.93183936      -2.69123512      -3.53199135 final
Ni     -99.81413275      -0.79929158      -3.51006031 final
Ni     -92.17904608      -0.88106906      -3.50321978 final
Ni     -84.36034783      -0.99383050      -3.52525534 final
Ni     -96.70978175      -3.19939127      -5.28458650 final
Ni     -89.05331220      -3.31028400      -5.31176437 final
Fe     -81.31551628      -3.35194597      -5.28534564 final
Ni    -101.26298301      -1.63300429      -5.28514678 final
Ni     -93.69039474      -1.65454341      -5.28550434 final
Ni     -85.93204838      -1.75982426      -5.31385173 final
Ni     -77.10216120      -0.67037451      -5.28431425 final
Ni     -69.13440092      -0.70543290      -5.30833404 final
Ni     -61.27339480      -0.75449063      -5.27736947 final
Ni     -53.47918100      -0.74463753      -5.21413341 final
Ni     -45.56203685      -0.85615181      -5.27878566 final
Ni     -37.73734287      -0.75963618      -5.25084488 final
Ni     -29.96052020      -0.71557928      -5.28068826 final
Ni     -22.13875721      -0.71727729      -5.31659415 final
Ni     -14.20620094      -0.74478872      -5.27115030 final
Ni      -6.45414206      -0.71877240      -5.28413131 final
Ni     -73.84707049      -2.28025371      -5.28639605 final
Ni     -66.02276068      -2.29128851      -5.31222552 final
Ni     -58.09231854      -2.41253225      -5.27041697 final
Ni     -50.23463571      -2.36204752      -5.27896361 final
Ni     -42.44944302      -2.38920257      -5.24391182 final
Mo     -34.60673803      -2.34430982      -5.28645201 final
Ni     -26.83455944      -2.32177853      -5.27959037 final
Ni     -19.00105846      -2.30406435      -5.31912582 final
Ni     -11.05918158      -2.34339950      -5.28159896 final
Cr      -3.36082574      -2.27605342      -5.28193823 final
Ni     -78.64247120       0.22367103      -3.52203063 final
Ni     -70.64645190       0.10379590      -3.52019134 final
Ni     -62.83676358       0.06516683      -3.53021756 final
Ni     -55.01227876       0.03216689      -3.50809471 final
Ni     -47.14697753      -0.06579549      -3.51383303 final
Cr     -39.31218468       0.00997218      -3.51887753 final
Ni     -31.52856479       0.03536280      -3.51351268 final
Ni     -23.75559166       0.06973856      -3.52518000 final
Cr     -15.81245055       0.03687023      -3.52056645 final
Ni      -8.00955227       0.05835858      -3.55759442 final
Ni     -75.42776560      -1.47449335      -3.52924970 final
Mo     -67.56988124      -1.49304773      -3.50729648 final
Mo     -59.67445281      -1.57505450      -3.51486288 final
Ni     -51.83537035      -1.55337754      -3.53063740 final
Ni     -44.01958564      -1.62866356      -3.52241487 final
Ni     -36.20758022      -1.56014600      -3.50149173 final
Ni     -28.40057161      -1.52058726      -3.48236519 final
Ni     -20.55668152      -1.54209126      -3.52084052 final
Cr     -12.57256182      -1.55371968      -3.51958663 final
Ni      -4.89938050      -1.47380491      -3.55093329 final
Ni     -72.29648675      -3.07079752      -3.48403919 final
Ni     -64.47025304      -3.12643477      -3.48216265 final
Ni     -56.56081496      -3.19241653      -3.50609435 final
Ni     -48.68261686      -3.14890406      -3.55133825 final
Ni     -40.88669958      -3.16617423      -3.51281023 final
Cr     -33.05059639      -3.15848642      -3.46362556 final
Ni     -25.30551901      -3.11966067      -3.52160878 final
Ni     -17.41546427      -3.12260038      -3.52011040 final
Ni      -9.53266787      -3.10149231      -3.52742671 final
Mo      -1.61947418      -2.99536461      -3.49594114 final
Ni     -74.62072274       0.13176497      -5.28095911 final
Ni     -66.80174525       0.08757969      -5.30896571 final
Ni     -58.87358920       0.02894727      -5.27541641 final
Ni     -51.05475705      -0.02547956      -5.26820288 final
Ni     -43.22759223      -0.00686377      -5.24863209 final
Ni     -35.41450394       0.01034940      -5.27767858 final
Ni     -27.61831921       0.00393283      -5.27734961 final
Ni     -19.77778534       0.03818189      -5.34212704 final
Fe     -11.83493556      -0.06664860      -5.28595713 final
Ni      -4.10399068       0.10854399      -5.28116203 final
Ni     -71.46172418      -1.46525724      -5.28779559 final
Mo     -63.64448776      -1.55399686      -5.27983248 final
Cr     -55.76630616      -1.56291864      -5.26956514 final
Ni     -47.89613713      -1.59255818      -5.28921914 final
Ni     -40.09375288      -1.56575933      -5.21385797 final
Ni     -32.26145059      -1.55474537      -5.27520468 final
Ni     -24.53258197      -1.50601769      -5.28639558 final
Ni     -16.62333013      -1.54490874      -5.31424720 final
Ni      -8.77601833      -1.53199002      -5.28687142 final
Ni      -1.13411486      -1.46863212      -5.28088505 final
Ni     -76.23419845      -3.00840482      -5.28317674 final
Ni     -68.34397750      -3.09771203      -5.31341773 final
Ni     -60.50134690      -3.16055258      -5.26975709 final
Mo     -52.66680282      -3.13875073      -5.27406691 final
Ni     -44.78203377      -3.17693865      -5.26888489 final
Ni     -36.99176883      -3.15249282      -5.25189024 final
Mo     -29.21000198      -3.10146447      -5.27991774 final
Fe     -21.35616567      -3.12816280      -5.28422903 final
Ni     -13.39040544      -3.11039993      -5.26035621 final
Ni      -5.69343789      -3.04738614      -5.28296961 final
Mo     -73.03063821      -0.67038977      -3.50727530 final
Ni     -65.21607765      -0.69659993      -3.51733538 final
Ni     -57.29591419      -0.79041439      -3.52689393 final
Cr     -49.47236280      -0.81628154      -3.52082368 final
Ni     -41.68454097      -0.76888295      -3.51541922 final
Ni     -33.84163374      -0.78505905      -3.48993279 final
Cr     -26.07812122      -0.76447654      -3.50466659 final
Mo     -18.19157827      -0.74722185      -3.52006345 final
Ni     -10.30669959      -0.77336363      -3.52972024 final
Ni      -2.55817573      -0.63561698      -3.53793431 final
Ni     -77.74954004      -2.16016536      -3.50066228 final
Ni     -69.92903049      -2.27184655      -3.49200152 final
Ni     -62.06762765      -2.36525162      -3.50669409 final
Fe     -54.26268635      -2.33857384      -3.51208286 final
Cr     -46.33728379      -2.38648700      -3.52571858 final
Ni     -38.52394295      -2.35517567      -3.52491191 final
Ni     -30.75939497      -2.31367821      -3.49495600 final
Mo     -22.94725950      -2.31078561      -3.52517174 final
Mo     -15.02479124      -2.33733855      -3.52158663 final
Ni      -7.22603416      -2.29456444      -3.54210157 final
Mo    -100.69813048      -7.09758051      -1.76292541 final
Fe     -92.92376719      -7.17122360      -1.76778313 final
Ni     -85.17405462      -7.26987360      -1.80181565 final
Fe     -97.49469748      -5.55306822      -1.76119136 final
Ni     -89.83046127      -5.64260820      -1.76602165 final
Ni     -82.03396882      -5.67270702      -1.73979073 final
Ni    -102.29154247      -4.14607348      -1.76126533 final
Cr     -94.42851992      -3.99477226      -1.76921391 final
Mo     -86.74036773      -4.10344831      -1.75990329 final
Ni     -99.00645674      -6.34879365      -3.53732633 final
Ni     -91.38248997      -6.41705490      -3.54237743 final
Mo     -83.53321667      -6.48504004      -3.52289215 final
Ni     -95.95887562      -4.77069670      -3.52660867 final
Ni     -88.31502780      -4.87172271      -3.56849466 final
Ni     -80.45188924      -4.96060518      -3.52535004 final
Ni     -98.25416126      -3.97351295      -3.51966676 final
Ni     -90.61911947      -4.08651253      -3.53967326 final
Fe     -82.80787640      -4.07152473      -3.52544572 final
Ni     -95.20155610      -6.35147147      -1.76380638 final
Ni     -87.52394659      -6.47395885      -1.80208264 final
Ni     -79.83914666      -6.43340967      -1.74847933 final
Ni     -99.82508629      -4.76942005      -1.76118836 final
Ni     -92.14082045      -4.84288659      -1.75716645 final
Ni     -84.37094727      -4.87259145      -1.77486776 final
Fe     -96.72229091      -7.13320059      -3.52017298 final
Ni     -89.06177521      -7.23097233      -3.53294065 final
Ni     -81.14658237      -7.34820641      -3.52135028 final
Ni    -101.27542825      -5.66424800      -3.63588592 final
Ni     -93.67356639      -5.58392147      -3.53151186 final
Ni     -85.96058963      -5.67866749      -3.55168671 final
Ni     -76.99226086      -4.51400348      -3.50561801 final
Fe     -69.11681228      -4.65515167      -3.48501490 final
Ni     -61.29402108      -4.72634340      -3.48633922 final
Ni     -53.47958575      -4.72045047      -3.50655087 final
Ni     -45.53889108      -4.71270409      -3.52161193 final
Ni     -37.77978973      -4.72414317      -3.55664152 final
Ni     -30.00674668      -4.70494079      -3.52613860 final
Ni     -22.17049942      -4.71830336      -3.52370476 final
Ni     -14.24524855      -4.73929512      -3.52801632 final
Ni      -6.46151813      -4.63992292      -3.47910317 final
Ni     -73.81216269      -6.12826481      -3.51723673 final
Ni     -66.00270223      -6.23312085      -3.48751449 final
Ni     -58.10013182      -6.30787343      -3.47738559 final
Ni     -50.25165302      -6.34205476      -3.54420113 final
Ni     -42.42879756      -6.27129813      -3.52229759 final
Ni     -34.63666965      -6.29882146      -3.55839229 final
Ni     -26.83235976      -6.26624382      -3.53639029 final
Ni     -19.00910595      -6.29485631      -3.51813244 final
Ni     -11.05723799      -6.31487982      -3.50846121 final
Ni      -3.36315480      -6.20081474      -3.47989952 final
Mo     -78.75526566      -3.88566684      -1.76051854 final
Ni     -70.70642141      -3.86249389      -1.75388515 final
Ni     -62.87999812      -3.94595394      -1.76269936 final
Ni     -55.04705104      -3.94951557      -1.74612382 final
Ni     -47.11136814      -3.91086542      -1.75893761 final
Ni     -39.31008682      -3.94393199      -1.79920546 final
Ni     -31.51410511      -3.92932263      -1.76019389 final
Ni     -23.73372743      -3.92891606      -1.77806384 final
Ni     -15.79623525      -3.95063985      -1.75206811 final
Cr      -8.01042665      -3.84613635      -1.77575659 final
Ni     -75.33803453      -5.28079720      -1.74686073 final
Ni     -67.55857390      -5.44867527      -1.76446869 final
Cr     -59.72246070      -5.52487503      -1.75247969 final
Ni     -51.85974557      -5.53557228      -1.72263828 final
Ni     -43.95938917      -5.50802215      -1.75378829 final
Mo     -36.22583842      -5.51354898      -1.76812103 final
Mo     -28.41466258      -5.49141683      -1.76242661 final
Ni     -20.61773197      -5.48512207      -1.80089441 final
Mo     -12.66334573      -5.51153669      -1.76288545 final
Cr      -4.89450929      -5.40081420      -1.76173876 final
Ni     -72.24637122      -6.94627155      -1.75770307 final
Ni     -64.43643999      -7.00461073      -1.75905524 final
Ni     -56.53209298      -7.06352726      -1.75521208 final
Ni     -48.71425310      -7.14349364      -1.76645771 final
Ni     -40.88946562      -7.06008049      -1.72147546 final
Fe     -33.11214955      -7.08945648      -1.75946162 final
Ni     -25.30204167      -7.02463071      -1.78097652 final
Ni     -17.39822704      -7.08061405      -1.79862204 final
Ni      -9.55566330      -7.05982107      -1.75202226 final
Mo      -1.52852216      -6.94397539      -1.76207191 final
Ni     -74.63291055      -3.79477456      -3.50793348 final
Ni     -66.80224418      -3.89422430      -3.47777897 final
Ni     -58.90344613      -3.98166631      -3.47075273 final
Ni     -51.04420009      -3.97209690      -3.54550787 final
Ni     -43.21656145      -3.94693879      -3.52479004 final
Ni     -35.41042294      -3.94298167      -3.53493468 final
Ni     -27.61428839      -3.88891842      -3.51261277 final
Ni     -19.81855456      -3.88112019      -3.52826651 final
Ni     -11.83663861      -3.90825886      -3.52406825 final
Ni      -4.11358493      -3.82196447      -3.49866767 final
Ni     -71.46701035      -5.42267701      -3.48520905 final
Ni     -63.65283033      -5.47523094      -3.48453692 final
Ni     -55.77496304      -5.52560443      -3.52663470 final
Ni     -47.92415220      -5.51802188      -3.55670907 final
Mo     -40.11791593      -5.52928340      -3.52445589 final
Ni     -32.32572436      -5.49597953      -3.52175519 final
Fe     -24.53168498      -5.46329573      -3.52812676 final
Ni     -16.59090318      -5.50733726      -3.51942233 final
Ni      -8.76730269      -5.44783958      -3.50023633 final
Ni      -1.14532506      -5.37543315      -3.51607605 final
Mo     -76.18794275      -6.94945173      -3.51646309 final
Cr     -68.34223199      -6.99745361      -3.50564285 final
Ni     -60.48723589      -7.05181637      -3.48161521 final
Mo     -52.64209974      -7.07836782      -3.52748452 final
Ni     -44.73347513      -7.13091171      -3.51218450 final
Ni     -36.98086337      -7.09063314      -3.56046677 final
Ni     -29.19604319      -7.07648364      -3.54969851 final
Cr     -21.39308911      -7.04284895      -3.52062452 final
Ni     -13.44341982      -7.12544419      -3.51221983 final
Ni      -5.68453629      -6.99431135      -3.45998771 final
Cr     -73.03100322      -4.61422427      -1.77748768 final
Cr     -65.22675744      -4.68021939      -1.74892856 final
Cr     -57.33475203      -4.74985966      -1.75242352 final
Mo     -49.47254713      -4.73813758      -1.75781094 final
Ni     -41.65103407      -4.72461305      -1.76812587 final
Ni     -33.83669776      -4.73269278      -1.75313084 final
Ni     -26.04450841      -4.67552762      -1.76333500 final
Mo     -18.21223243      -4.69917637      -1.76547039 final
Ni     -10.27149082      -4.69250021      -1.75178639 final
Ni      -2.57765348      -4.58813935      -1.76139582 final
Ni     -77.62503844      -6.10333710      -1.76028503 final
Ni     -69.88816748      -6.21829874      -1.77096578 final
Cr     -62.04684617      -6.26310930      -1.75961499 final
Ni     -54.25170927      -6.27861501      -1.73219010 final
Mo     -46.34565591      -6.32287351      -1.75994292 final
Ni     -38.56488420      -6.29916213      -1.75246783 final
Ni     -30.80127763      -6.28046915      -1.75020462 final
Ni     -22.97160136      -6.25659955      -1.79812517 final
Cr     -15.04468566      -6.30817357      -1.76182033 final
Ni      -7.24342895      -6.20651585      -1.75306836 final
