130
Lattice="0.0 0.0 -3.52 2e-16 -3.9354796403996297 1.7600000000000007 -102.32247065039037 0.0 -6.3e-15" Properties=species:S:1:pos:R:3:frame_label:S:1 pbc="T T T"
Ni    -100.68421613      -3.12817769      -0.00000000 random
Ni     -92.83912035      -3.15220828      -0.00000000 random
Ni     -85.08944627      -3.14675678      -0.00000000 random
Cr     -97.49635799      -1.56976201      -0.00000000 random
Ni     -89.74084859      -1.57280813      -0.00000000 random
Ni     -82.01308271      -1.56713148      -0.00000000 random
Ni    -102.32334456      -0.01198342      -0.00000000 random
Ni     -94.38747173      -0.00509226      -0.00000000 random
Ni     -86.64459173       0.00509226      -0.00000000 random
Ni     -99.01898075      -2.36834816      -1.76000000 random
Cr     -91.29121487      -2.36267151      -1.76000000 random
Ni     -83.53570547      -2.36571763      -1.76000000 random
Ni     -95.94261719      -0.78872286      -1.76000000 random
Ni     -88.19294311      -0.78327136      -1.76000000 random
Ni     -80.34784733      -0.80730195      -1.76000000 random
Mo     -98.28548225       0.00638148      -1.76000000 random
Ni     -90.51603173       0.00000000      -1.76000000 random
Ni     -82.74658121      -0.00638148      -1.76000000 random
Ni     -95.16397428      -2.36492959      -0.00000000 random
Ni     -87.41715697      -2.35689535      -0.00000000 random
Ni     -79.80510840      -2.38181110      -0.00000000 random
Ni     -99.83824749      -0.74628196      -0.00000000 random
Ni     -92.06429434      -0.79030318      -0.00000000 random
Ni     -84.32128036      -0.78349434      -0.00000000 random
Ni     -96.71078310      -3.15198530      -1.76000000 random
Ni     -88.96776911      -3.14517646      -1.76000000 random
Ni     -81.19381597      -3.18919768      -1.76000000 random
Fe    -101.22695506      -1.55366854      -1.76000000 random
Ni     -93.61490649      -1.57858429      -1.76000000 random
Ni     -85.86808917      -1.57055005      -1.76000000 random
Mo     -77.06870959      -0.80694054      -1.76000000 random
Mo     -69.19580674      -0.77997460      -1.76000000 random
Ni     -61.38003842      -0.78579651      -1.76000000 random
Ni     -53.52214389      -0.78706552      -1.76000000 random
Cr     -45.65156116      -0.78709580      -1.76000000 random
Ni     -37.78060477      -0.78709594      -1.76000000 random
Ni     -29.90966339      -0.78709706      -1.76000000 random
Ni     -22.04074162      -0.78727425      -1.76000000 random
Ni     -14.19773857      -0.79019384      -1.76000000 random
Ni      -6.39440802      -0.79036345      -1.76000000 random
Ni     -73.87450081      -2.36470172      -1.76000000 random
Ni     -66.07520422      -2.35684258      -1.76000000 random
Cr     -58.24089081      -2.36090943      -1.76000000 random
Ni     -50.37408761      -2.36128415      -1.76000000 random
Ni     -42.50317956      -2.36128776      -1.76000000 random
Ni     -34.63222203      -2.36128784      -1.76000000 random
Ni     -26.76140607      -2.36129878      -1.76000000 random
Ni     -18.89818089      -2.36202534      -1.76000000 random
Cr     -11.07228666      -2.36721621      -1.76000000 random
Ni      -3.30869562      -2.36886856      -1.76000000 random
Ni     -78.70871890       0.01198342      -0.00000000 random
Ni     -70.75281085       0.00748857      -0.00000000 random
Ni     -62.94670336       0.00210653      -0.00000000 random
Mo     -55.09579383       0.00007700      -0.00000000 random
Ni     -47.22574908       0.00000036      -0.00000000 random
Ni     -39.35479640       0.00000000      -0.00000000 random
Ni     -31.48384373      -0.00000036      -0.00000000 random
Ni     -23.61379897      -0.00007700      -0.00000000 random
Cr     -15.76288945      -0.00210653      -0.00000000 random
Ni      -7.95678196      -0.00748857      -0.00000000 random
Ni     -75.40089718      -1.56661108      -0.00000000 random
Ni     -67.63730615      -1.56826343      -0.00000000 random
Ni     -59.81141192      -1.57345430      -0.00000000 random
Ni     -51.94818674      -1.57418086      -0.00000000 random
Ni     -44.07737078      -1.57419180      -0.00000000 random
Mo     -36.20641324      -1.57419188      -0.00000000 random
Ni     -28.33550520      -1.57419549      -0.00000000 random
Fe     -20.46870199      -1.57457021      -0.00000000 random
Ni     -12.63438859      -1.57863706      -0.00000000 random
Ni      -4.83509200      -1.57077792      -0.00000000 random
Ni     -72.31518479      -3.14511619      -0.00000000 random
Ni     -64.51185424      -3.14528580      -0.00000000 random
Ni     -56.66885119      -3.14820539      -0.00000000 random
Ni     -48.79992942      -3.14838258      -0.00000000 random
Ni     -40.92898804      -3.14838370      -0.00000000 random
Ni     -33.05803165      -3.14838384      -0.00000000 random
Mo     -25.18744892      -3.14841412      -0.00000000 random
Ni     -17.32955438      -3.14968313      -0.00000000 random
Ni      -9.51378607      -3.15550504      -0.00000000 random
Mo      -1.64088322      -3.12853910      -0.00000000 random
Ni     -74.66571632      -0.00561005      -1.76000000 random
Ni     -66.85646447       0.00497554      -1.76000000 random
Ni     -59.02637329       0.00053323      -1.76000000 random
Ni     -51.16114832       0.00000638      -1.76000000 random
Ni     -43.29027523       0.00000004      -1.76000000 random
Ni     -35.41931758      -0.00000004      -1.76000000 random
Ni     -27.54844449      -0.00000638      -1.76000000 random
Ni     -19.68321952      -0.00053323      -1.76000000 random
Ni     -11.85312834      -0.00497554      -1.76000000 random
Mo      -4.04387649       0.00561005      -1.76000000 random
Ni     -71.53308978      -1.56854538      -1.76000000 random
Ni     -63.72944384      -1.57161596      -1.76000000 random
Ni     -55.88242044      -1.57407356      -1.76000000 random
Cr     -48.01284078      -1.57419122      -1.76000000 random
Ni     -40.14189223      -1.57419185      -1.76000000 random
Ni     -32.27093718      -1.57419207      -1.76000000 random
Mo     -24.40057094      -1.57424087      -1.76000000 random
Ni     -16.54598334      -1.57587304      -1.76000000 random
Mo      -8.73356633      -1.58145705      -1.76000000 random
Ni      -1.09856287      -1.55406655      -1.76000000 random
Fe     -76.22147516      -3.18885388      -1.76000000 random
Ni     -68.41614100      -3.14135486      -1.76000000 random
Fe     -60.59596359      -3.14739015      -1.76000000 random
Cr     -52.73519090      -3.14836521      -1.76000000 random
Mo     -44.86446613      -3.14838363      -1.76000000 random
Ni     -36.99350898      -3.14838373      -1.76000000 random
Mo     -29.12257996      -3.14838575      -1.76000000 random
Ni     -21.25456414      -3.14864630      -1.76000000 random
Ni     -13.41571760      -3.15208440      -1.76000000 random
Ni      -5.62315349      -3.15323213      -1.76000000 random
Ni     -73.08643932      -0.78224751      -0.00000000 random
Ni     -65.29387520      -0.78339524      -0.00000000 random
Ni     -57.45502866      -0.78683334      -0.00000000 random
Fe     -49.58701285      -0.78709389      -0.00000000 random
Ni     -41.71608383      -0.78709591      -0.00000000 random
Ni     -33.84512668      -0.78709601      -0.00000000 random
Ni     -25.97440190      -0.78711443      -0.00000000 random
Cr     -18.11362921      -0.78808949      -0.00000000 random
Ni     -10.29345181      -0.79412478      -0.00000000 random
Ni      -2.48811765      -0.74662576      -0.00000000 random
Ni     -77.61102994      -2.38141309      -0.00000000 random
Mo     -69.97602648      -2.35402259      -0.00000000 random
Ni     -62.16360947      -2.35960660      -0.00000000 random
Ni     -54.30902187      -2.36123877      -0.00000000 random
Cr     -46.43865562      -2.36128757      -0.00000000 random
Ni     -38.56770058      -2.36128779      -0.00000000 random
Ni     -30.69675203      -2.36128842      -0.00000000 random
Ni     -22.82717237      -2.36140608      -0.00000000 random
Ni     -14.98014897      -2.36386368      -0.00000000 random
Ni      -7.17650302      -2.36693426      -0.00000000 random
130
Lattice="0.0 0.0 -3.52 2e-16 -3.9354796403996297 1.7600000000000007 -102.32247065039037 0.0 -6.3e-15" Properties=species:S:1:pos:R:3:frame_label:S:1 pbc="T T T"
Ni    -100.60820195      -3.40804209      -0.00000000 snap500
Ni     -92.70477221      -3.16947450      -0.00000000 snap500
Ni     -84.89066626      -3.02757144      -0.00000000 snap500
Ni     -97.33655142      -1.73645569      -0.00000000 snap500
Ni     -89.67069446      -1.58377221      -0.00000000 snap500
Ni     -81.86788755      -1.43489199      -0.00000000 snap500
Ni    -102.13132830      -0.26125020      -0.00000000 snap500
Ni     -94.23203017      -0.05420785      -0.00000000 snap500
Ni     -86.42163382       0.13416861      -0.00000000 snap500
Fe     -98.97755685      -2.57465635      -1.76000000 snap500
Ni     -91.19417377      -2.38071440      -1.76000000 snap500
Ni     -83.38470632      -2.25182608      -1.76000000 snap500
Ni     -95.74089302      -0.87731649      -1.76000000 snap500
Mo     -88.04533660      -0.72263950      -1.76000000 snap500
Ni     -80.25060006      -0.68523502      -1.76000000 snap500
Ni     -98.16462924      -0.18481595      -1.76000000 snap500
Ni     -90.43835314      -0.00200475      -1.76000000 snap500
Ni     -82.61279369       0.12388099      -1.76000000 snap500
Cr     -94.99512725      -2.42900683      -0.00000000 snap500
Ni     -87.21412259      -2.27614800      -0.00000000 snap500
Cr     -79.71890734      -2.19947381      -0.00000000 snap500
Ni     -99.76949864      -1.03864157      -0.00000000 snap500
Cr     -91.94545111      -0.81303520      -0.00000000 snap500
Cr     -84.15222077      -0.66084830      -0.00000000 snap500
Ni     -96.54021876      -3.25390272      -1.76000000 snap500
Ni     -88.87696048      -3.10564047      -1.76000000 snap500
Ni     -81.07656466      -3.03109818      -1.76000000 snap500
Ni    -101.28167573      -1.87935203      -1.76000000 snap500
Ni     -93.45501003      -1.61914544      -1.76000000 snap500
Ni     -85.65386716      -1.45683202      -1.76000000 snap500
Mo     -77.29527160      -1.13359630      -1.76000000 snap500
Mo     -69.24873176      -0.96355311      -1.76000000 snap500
Ni     -61.37204875      -0.84071348      -1.76000000 snap500
Ni     -53.53723619      -0.81480089      -1.76000000 snap500
Ni     -45.75742176      -0.77569020      -1.76000000 snap500
Ni     -37.94849954      -0.75551770      -1.76000000 snap500
Ni     -29.99464509      -0.77916012      -1.76000000 snap500
Ni     -21.91360220      -0.83551537      -1.76000000 snap500
Ni     -14.25218154      -0.69251054      -1.76000000 snap500
Ni      -6.41259601      -0.53269011      -1.76000000 snap500
Ni     -73.89462169      -2.63431085      -1.76000000 snap500
Cr     -66.10021272      -2.49997200      -1.76000000 snap500
Ni     -58.29603383      -2.35361058      -1.76000000 snap500
Ni     -50.49745659      -2.33435513      -1.76000000 snap500
Ni     -42.57337414      -2.36472083      -1.76000000 snap500
Ni     -34.66223269      -2.39430420      -1.76000000 snap500
Ni     -26.74428759      -2.36984739      -1.76000000 snap500
Ni     -18.84126728      -2.36658361      -1.76000000 snap500
Ni     -11.22168529      -2.16700679      -1.76000000 snap500
Ni      -3.24316786      -2.07932711      -1.76000000 snap500
Ni     -78.75537060       0.10707837      -0.00000000 snap500
Fe     -70.87516154      -0.15112118      -0.00000000 snap500
Mo     -63.01836427      -0.05713814      -0.00000000 snap500
Fe     -55.16024587       0.01799970      -0.00000000 snap500
Ni     -47.39085953       0.05057543      -0.00000000 snap500
Ni     -39.49144727       0.00540881      -0.00000000 snap500
Ni     -31.57450494       0.01939343      -0.00000000 snap500
Ni     -23.50143577      -0.03701337      -0.00000000 snap500
Ni     -15.78277105       0.05718679      -0.00000000 snap500
Ni      -7.98549747       0.22495348      -0.00000000 snap500
Ni     -75.41530537      -1.84409975      -0.00000000 snap500
Ni     -67.61793359      -1.77401110      -0.00000000 snap500
Ni     -59.81152491      -1.61395368      -0.00000000 snap500
Ni     -52.01303058      -1.57553189      -0.00000000 snap500
Ni     -44.13256544      -1.59406315      -0.00000000 snap500
Mo     -36.29302669      -1.57888337      -0.00000000 snap500
Ni     -28.32707590      -1.57934564      -0.00000000 snap500
Ni     -20.36207675      -1.59469851      -0.00000000 snap500
Ni     -12.73466429      -1.42400910      -0.00000000 snap500
Ni      -4.85843288      -1.28512092      -0.00000000 snap500
Ni     -72.39947106      -3.35762724      -0.00000000 snap500
Ni     -64.60430258      -3.22310655      -0.00000000 snap500
Ni     -56.76583625      -3.10378709      -0.00000000 snap500
Ni     -48.95721300      -3.11282165      -0.00000000 snap500
Ni     -41.03617877      -3.14440168      -0.00000000 snap500
Cr     -33.10532546      -3.15112281      -0.00000000 snap500
Ni     -25.15677446      -3.16497047      -0.00000000 snap500
Ni     -17.31589158      -3.12329399      -0.00000000 snap500
Ni      -9.63478568      -2.93072288      -0.00000000 snap500
Mo      -1.04133361      -2.73290312      -0.00000000 snap500
Ni     -74.69218438      -0.28650234      -1.76000000 snap500
Ni     -66.86199507      -0.16960063      -1.76000000 snap500
Fe     -59.05113636      -0.01664244      -1.76000000 snap500
Cr     -51.25586073       0.00812768      -1.76000000 snap500
Mo     -43.34742401      -0.01086091      -1.76000000 snap500
Ni     -35.47195904      -0.01343944      -1.76000000 snap500
Ni     -27.52754239      -0.01875110      -1.76000000 snap500
Fe     -19.59308060      -0.02373607      -1.76000000 snap500
Ni     -11.98727484       0.18430899      -1.76000000 snap500
Mo      -4.01137339       0.29665681      -1.76000000 snap500
Ni     -71.63693681      -1.75786945      -1.76000000 snap500
Ni     -63.81976744      -1.62377941      -1.76000000 snap500
Ni     -55.97386418      -1.54795944      -1.76000000 snap500
Ni     -48.17917933      -1.52951348      -1.76000000 snap500
Cr     -40.25535033      -1.56310135      -1.76000000 snap500
Ni     -32.34620126      -1.56570489      -1.76000000 snap500
Ni     -24.32271009      -1.59731726      -1.76000000 snap500
Ni     -16.56200655      -1.52405966      -1.76000000 snap500
Mo      -8.81798980      -1.35543089      -1.76000000 snap500
Ni      -1.10943830      -1.16163985      -1.76000000 snap500
Ni     -76.20858997      -3.48195929      -1.76000000 snap500
Ni     -68.42013250      -3.32467715      -1.76000000 snap500
Ni     -60.58172685      -3.21207944      -1.76000000 snap500
Ni     -52.76914209      -3.15614393      -1.76000000 snap500
Ni     -44.93383083      -3.14657098      -1.76000000 snap500
Ni     -37.13981221      -3.14330174      -1.76000000 snap500
Mo     -29.16234771      -3.15019284      -1.76000000 snap500
Ni     -21.13958329      -3.18499517      -1.76000000 snap500
Ni     -13.49314462      -3.02957783      -1.76000000 snap500
Ni      -5.64319740      -2.86734421      -1.76000000 snap500
Mo     -73.14014288      -1.01847133      -0.00000000 snap500
Ni     -65.35085793      -0.89433037      -0.00000000 snap500
Ni     -57.53917806      -0.76146974      -0.00000000 snap500
Ni     -49.73403988      -0.76540443      -0.00000000 snap500
Ni     -41.79108086      -0.77916844      -0.00000000 snap500
Ni     -33.86989887      -0.80703169      -0.00000000 snap500
Ni     -25.95738188      -0.78386014      -0.00000000 snap500
Ni     -18.07991335      -0.78068957      -0.00000000 snap500
Ni     -10.42841314      -0.56290566      -0.00000000 snap500
Ni      -2.42932266      -0.44353334      -0.00000000 snap500
Ni     -77.59249102      -2.69358428      -0.00000000 snap500
Ni     -70.07504655      -2.53676069      -0.00000000 snap500
Ni     -62.19782955      -2.41691073      -0.00000000 snap500
Mo     -54.33090471      -2.35328844      -0.00000000 snap500
Cr     -46.59006265      -2.33573521      -0.00000000 snap500
Ni     -38.72198944      -2.34447980      -0.00000000 snap500
Ni     -30.80257630      -2.32159886      -0.00000000 snap500
Mo     -22.70186537      -2.42069346      -0.00000000 snap500
Cr     -15.00119502      -2.29618813      -0.00000000 snap500
Ni      -7.19544050      -2.13629222      -0.00000000 snap500
130
Lattice="0.0 0.0 -3.52 2e-16 -3.9354796403996297 1.7600000000000007 -102.32247065039037 0.0 -6.3e-15" Properties=species:S:1:pos:R:3:frame_label:S:1 pbc="T T T"
Mo    -100.57889010      -3.36249638      -0.00000000 snap1000
Ni     -92.77200938      -3.20648985      -0.00000000 snap1000
Ni     -84.93930305      -3.01712493      -0.00000000 snap1000
Cr     -97.39442334      -1.70807228      -0.00000000 snap1000
Ni     -89.72673828      -1.57660960      -0.00000000 snap1000
Ni     -81.87350112      -1.42792785      -0.00000000 snap1000
Ni    -102.21942613      -0.22322138      -0.00000000 snap1000
Ni     -94.32607020      -0.08301707      -0.00000000 snap1000
Mo     -86.56818516       0.06451425      -0.00000000 snap1000
Ni     -98.92330156      -2.51011424      -1.76000000 snap1000
Ni     -91.25257679      -2.39104665      -1.76000000 snap1000
Cr     -83.39230877      -2.23282443      -1.76000000 snap1000
Ni     -95.87835275      -0.90416165      -1.76000000 snap1000
Ni     -88.18436562      -0.78225668      -1.76000000 snap1000
Ni     -80.24016384      -0.67941378      -1.76000000 snap1000
Ni     -98.16861617      -0.14833469      -1.76000000 snap1000
Cr     -90.48414317      -0.01637537      -1.76000000 snap1000
Fe     -82.60966279       0.14666126      -1.76000000 snap1000
Ni     -95.11319314      -2.46115743      -0.00000000 snap1000
Ni     -87.38442889      -2.31861247      -0.00000000 snap1000
Cr     -79.67354948      -2.19686408      -0.00000000 snap1000
Ni     -99.72379006      -0.96945445      -0.00000000 snap1000
Ni     -92.00486074      -0.81780694      -0.00000000 snap1000
Ni     -84.16847180      -0.66398201      -0.00000000 snap1000
Ni     -96.63476348      -3.26769579      -1.76000000 snap1000
Ni     -88.97084112      -3.14854397      -1.76000000 snap1000
Ni     -81.06652935      -3.02349150      -1.76000000 snap1000
Ni    -101.30932632      -1.82875792      -1.76000000 snap1000
Fe     -93.56278499      -1.64294775      -1.76000000 snap1000
Ni     -85.73081934      -1.48522028      -1.76000000 snap1000
Mo     -77.23510857      -1.15495669      -1.76000000 snap1000
Ni     -69.24409785      -0.95588108      -1.76000000 snap1000
Ni     -61.43294227      -0.86396950      -1.76000000 snap1000
Ni     -53.61586118      -0.82049428      -1.76000000 snap1000
Ni     -45.80390609      -0.73711474      -1.76000000 snap1000
Cr     -37.82190171      -0.78925046      -1.76000000 snap1000
Cr     -29.94221485      -0.76984136      -1.76000000 snap1000
Ni     -21.86817221      -0.81683753      -1.76000000 snap1000
Ni     -14.19882494      -0.65997657      -1.76000000 snap1000
Ni      -6.34009029      -0.53822901      -1.76000000 snap1000
Ni     -73.83497459      -2.65354146      -1.76000000 snap1000
Ni     -66.00515686      -2.51795038      -1.76000000 snap1000
Ni     -58.40072366      -2.37243028      -1.76000000 snap1000
Ni     -50.51510121      -2.32904340      -1.76000000 snap1000
Ni     -42.57081377      -2.35645595      -1.76000000 snap1000
Ni     -34.75131835      -2.32139203      -1.76000000 snap1000
Mo     -26.74957612      -2.36684171      -1.76000000 snap1000
Fe     -18.76833394      -2.34219526      -1.76000000 snap1000
Ni     -11.15675342      -2.15217384      -1.76000000 snap1000
Ni      -3.31626814      -2.05563397      -1.76000000 snap1000
Ni     -78.71725089       0.09932339      -0.00000000 snap1000
Ni     -70.83109765      -0.17696978      -0.00000000 snap1000
Ni     -62.97108598      -0.09505735      -0.00000000 snap1000
Mo     -55.22544705      -0.01749950      -0.00000000 snap1000
Fe     -47.31558495       0.01421353      -0.00000000 snap1000
Ni     -39.32705235      -0.03817210      -0.00000000 snap1000
Ni     -31.48455417      -0.01391447      -0.00000000 snap1000
Ni     -23.52428822      -0.02517399      -0.00000000 snap1000
Fe     -15.71778969       0.08942306      -0.00000000 snap1000
Ni      -7.93366917       0.22633074      -0.00000000 snap1000
Ni     -75.36269045      -1.86717933      -0.00000000 snap1000
Ni     -67.58985301      -1.74445899      -0.00000000 snap1000
Cr     -59.91359037      -1.62402891      -0.00000000 snap1000
Ni     -52.08572677      -1.56271801      -0.00000000 snap1000
Mo     -44.18888864      -1.54440012      -0.00000000 snap1000
Ni     -36.30483076      -1.54047471      -0.00000000 snap1000
Ni     -28.39557196      -1.53684716      -0.00000000 snap1000
Ni     -20.29741714      -1.59327187      -0.00000000 snap1000
Ni     -12.67941424      -1.40755132      -0.00000000 snap1000
Ni      -4.82347122      -1.28184346      -0.00000000 snap1000
Cr     -72.34036200      -3.37660836      -0.00000000 snap1000
Ni     -64.49083263      -3.27382356      -0.00000000 snap1000
Ni     -56.84394135      -3.14439676      -0.00000000 snap1000
Ni     -48.88134660      -3.12617289      -0.00000000 snap1000
Mo     -40.95413825      -3.15932600      -0.00000000 snap1000
Mo     -33.12434497      -3.12804736      -0.00000000 snap1000
Ni     -25.12942184      -3.18387834      -0.00000000 snap1000
Ni     -17.24622713      -3.09390499      -0.00000000 snap1000
Ni      -9.58376162      -2.92515537      -0.00000000 snap1000
Mo      -1.33201599      -2.72387011      -0.00000000 snap1000
Ni     -74.63867688      -0.30710158      -1.76000000 snap1000
Ni     -66.79885165      -0.18151462      -1.76000000 snap1000
Ni     -59.15041436      -0.03475359      -1.76000000 snap1000
Ni     -51.30871068       0.04527424      -1.76000000 snap1000
Ni     -43.37833803       0.02065420      -1.76000000 snap1000
Ni     -35.54473647       0.02536973      -1.76000000 snap1000
Ni     -27.59602612       0.00232501      -1.76000000 snap1000
Ni     -19.53218304      -0.00199606      -1.76000000 snap1000
Ni     -11.91923095       0.18979662      -1.76000000 snap1000
Cr      -4.06226543       0.31456859      -1.76000000 snap1000
Ni     -71.57906960      -1.77666746      -1.76000000 snap1000
Cr     -63.72795498      -1.67964614      -1.76000000 snap1000
Ni     -56.05189979      -1.58615918      -1.76000000 snap1000
Ni     -48.09452959      -1.57281773      -1.76000000 snap1000
Ni     -40.12692774      -1.58608537      -1.76000000 snap1000
Ni     -32.28623868      -1.55883035      -1.76000000 snap1000
Ni     -24.31934388      -1.57726492      -1.76000000 snap1000
Ni     -16.48479507      -1.50417685      -1.76000000 snap1000
Mo      -8.76190630      -1.35033624      -1.76000000 snap1000
Ni      -1.17271577      -1.15879492      -1.76000000 snap1000
Ni     -76.15415189      -3.50350978      -1.76000000 snap1000
Mo     -68.42477423      -3.31875524      -1.76000000 snap1000
Ni     -60.66957264      -3.20504439      -1.76000000 snap1000
Ni     -52.83853176      -3.15527615      -1.76000000 snap1000
Ni     -45.00846693      -3.11411031      -1.76000000 snap1000
Ni     -37.05928142      -3.13638475      -1.76000000 snap1000
Ni     -29.18039850      -3.12822720      -1.76000000 snap1000
Ni     -21.08228836      -3.19112837      -1.76000000 snap1000
Ni     -13.44223810      -3.00422916      -1.76000000 snap1000
Ni      -5.58389229      -2.89160283      -1.76000000 snap1000
Ni     -73.09002810      -1.03893655      -0.00000000 snap1000
Ni     -65.24004401      -0.94082246      -0.00000000 snap1000
Ni     -57.63815675      -0.80111774      -0.00000000 snap1000
Mo     -49.70705449      -0.75934104      -0.00000000 snap1000
Ni     -41.76227483      -0.79344650      -0.00000000 snap1000
Ni     -33.95314013      -0.76239738      -0.00000000 snap1000
Ni     -25.92532110      -0.80079378      -0.00000000 snap1000
Ni     -18.00344739      -0.74581995      -0.00000000 snap1000
Ni     -10.37789124      -0.55557328      -0.00000000 snap1000
Ni      -2.53968754      -0.39606463      -0.00000000 snap1000
Ni     -77.53832877      -2.71693565      -0.00000000 snap1000
Ni     -70.04491538      -2.51953459      -0.00000000 snap1000
Ni     -62.20822119      -2.43537353      -0.00000000 snap1000
Ni     -54.40869203      -2.38431002      -0.00000000 snap1000
Ni     -46.57430869      -2.33280381      -0.00000000 snap1000
Ni     -38.56823601      -2.36992727      -0.00000000 snap1000
Ni     -30.70377615      -2.35050379      -0.00000000 snap1000
Mo     -22.69956612      -2.39038246      -0.00000000 snap1000
Ni     -14.96124423      -2.25180398      -0.00000000 snap1000
Ni      -7.13587830      -2.14011860      -0.00000000 snap1000
130
Lattice="0.0 0.0 -3.52 2e-16 -3.9354796403996297 1.7600000000000007 -102.32247065039037 0.0 -6.3e-15" Properties=species:S:1:pos:R:3:frame_label:S:1 pbc="T T T"
Cr    -100.57863932      -3.35312756      -0.00000000 final
Fe     -92.81375159      -3.20194720      -0.00000000 final
Ni     -85.02260425      -3.04741871      -0.00000000 final
Cr     -97.39298588      -1.69962103      -0.00000000 final
Ni     -89.79912841      -1.58616378      -0.00000000 final
Ni     -81.81187450      -1.43274832      -0.00000000 final
Ni    -102.21561002      -0.21287110      -0.00000000 final
Ni     -94.32163108      -0.08003612      -0.00000000 final
Mo     -86.63282323       0.05078216      -0.00000000 final
Ni     -98.91977990      -2.50158004      -1.76000000 final
Ni     -91.30398335      -2.38723077      -1.76000000 final
Ni     -83.43368187      -2.25586343      -1.76000000 final
Ni     -95.87791515      -0.90001999      -1.76000000 final
Ni     -88.24141228      -0.79166289      -1.76000000 final
Ni     -80.16166751      -0.65533977      -1.76000000 final
Ni     -98.16679388      -0.14039280      -1.76000000 final
Ni     -90.54874113      -0.03099931      -1.76000000 final
Mo     -82.60615532       0.12222820      -1.76000000 final
Ni     -95.12282527      -2.45089109      -0.00000000 final
Ni     -87.45637376      -2.32741150      -0.00000000 final
Ni     -79.58742315      -2.16607436      -0.00000000 final
Ni     -99.72129806      -0.95985538      -0.00000000 final
Ni     -92.05345437      -0.82610964      -0.00000000 final
Ni     -84.22396911      -0.70665845      -0.00000000 final
Ni     -96.63507090      -3.26369724      -1.76000000 final
Ni     -89.02018829      -3.15200182      -1.76000000 final
Ni     -80.98295537      -2.99194751      -1.76000000 final
Ni    -101.29902085      -1.82094086      -1.76000000 final
Ni     -93.56821636      -1.62855528      -1.76000000 final
Ni     -85.81095848      -1.50676702      -1.76000000 final
Mo     -77.18033908      -1.16241392      -1.76000000 final
Cr     -69.24660442      -0.96217032      -1.76000000 final
Fe     -61.45656682      -0.88153534      -1.76000000 final
Mo     -53.56509283      -0.81201148      -1.76000000 final
Mo     -45.77156970      -0.76704931      -1.76000000 final
Ni     -37.78387722      -0.80233099      -1.76000000 final
Ni     -29.83912377      -0.79056539      -1.76000000 final
Ni     -21.92314479      -0.81691207      -1.76000000 final
Ni     -14.20957316      -0.65984507      -1.76000000 final
Ni      -6.32399633      -0.56022125      -1.76000000 final
Ni     -73.79951256      -2.64326809      -1.76000000 final
Ni     -66.17781762      -2.49139523      -1.76000000 final
Ni     -58.42694266      -2.34000482      -1.76000000 final
Ni     -50.43516657      -2.36666129      -1.76000000 final
Ni     -42.58230207      -2.33648437      -1.76000000 final
Ni     -34.70483791      -2.31525558      -1.76000000 final
Ni     -26.76930900      -2.34461859      -1.76000000 final
Ni     -18.84774982      -2.33460486      -1.76000000 final
Ni     -11.13689072      -2.15782064      -1.76000000 final
Ni      -3.31633409      -2.03720121      -1.76000000 final
Ni     -78.65599859       0.12676758      -0.00000000 final
Ni     -70.74992707      -0.22251459      -0.00000000 final
Fe     -62.95360307      -0.13596201      -0.00000000 final
Ni     -55.18819795      -0.00288815      -0.00000000 final
Ni     -47.37464996       0.06007458      -0.00000000 final
Mo     -39.34585453      -0.03547774      -0.00000000 final
Ni     -31.45037802       0.01407155      -0.00000000 final
Ni     -23.51512149      -0.02637632      -0.00000000 final
Cr     -15.75382199       0.08479753      -0.00000000 final
Mo      -7.97698355       0.24560623      -0.00000000 final
Ni     -75.28094558      -1.88173281      -0.00000000 final
Ni     -67.75948351      -1.70578876      -0.00000000 final
Ni     -59.94781003      -1.60155827      -0.00000000 final
Ni     -51.96232701      -1.61466753      -0.00000000 final
Ni     -44.14874568      -1.57987377      -0.00000000 final
Ni     -36.24460263      -1.55904685      -0.00000000 final
Ni     -28.30218340      -1.56723589      -0.00000000 final
Cr     -20.38384735      -1.57612834      -0.00000000 final
Cr     -12.67246251      -1.41518636      -0.00000000 final
Cr      -4.80500853      -1.28590770      -0.00000000 final
Ni     -72.31079128      -3.37837769      -0.00000000 final
Ni     -64.53022646      -3.29437228      -0.00000000 final
Mo     -56.81919031      -3.13506883      -0.00000000 final
Ni     -48.91535094      -3.11174542      -0.00000000 final
Ni     -40.95258183      -3.14354832      -0.00000000 final
Ni     -33.11721305      -3.10819418      -0.00000000 final
Ni     -25.18237755      -3.15200988      -0.00000000 final
Ni     -17.28024912      -3.09589732      -0.00000000 final
Ni      -9.58990725      -2.89341106      -0.00000000 final
Mo      -1.38459799      -2.74019774      -0.00000000 final
Cr     -74.59407460      -0.31373022      -1.76000000 final
Ni     -66.97203048      -0.11622326      -1.76000000 final
Fe     -59.20942411      -0.00207056      -1.76000000 final
Ni     -51.18575295      -0.01885578      -1.76000000 final
Ni     -43.36431760       0.00997705      -1.76000000 final
Ni     -35.49417008       0.03186934      -1.76000000 final
Cr     -27.53436531       0.01837387      -1.76000000 final
Ni     -19.60818506       0.01207599      -1.76000000 final
Ni     -11.89609371       0.17637461      -1.76000000 final
Ni      -4.01794149       0.32527415      -1.76000000 final
Ni     -71.52546015      -1.79945448      -1.76000000 final
Ni     -63.74531065      -1.73444166      -1.76000000 final
Ni     -55.99442670      -1.56718510      -1.76000000 final
Cr     -48.16136956      -1.52786226      -1.76000000 final
Ni     -40.13706621      -1.58285430      -1.76000000 final
Ni     -32.27989611      -1.54694417      -1.76000000 final
Mo     -24.33781113      -1.58950194      -1.76000000 final
Ni     -16.51776738      -1.50171763      -1.76000000 final
Ni      -8.78950555      -1.32657574      -1.76000000 final
Ni      -1.15396624      -1.17493946      -1.76000000 final
Ni     -76.08142330      -3.50079517      -1.76000000 final
Ni     -68.49948294      -3.30404217      -1.76000000 final
Ni     -60.69553163      -3.20225023      -1.76000000 final
Ni     -52.75131647      -3.17688879      -1.76000000 final
Ni     -44.93765631      -3.13692859      -1.76000000 final
Ni     -37.01266048      -3.15369702      -1.76000000 final
Ni     -29.06695135      -3.16185292      -1.76000000 final
Ni     -21.15128280      -3.16839107      -1.76000000 final
Ni     -13.43087830      -3.01161124      -1.76000000 final
Ni      -5.57379990      -2.89857170      -1.76000000 final
Ni     -73.03897891      -1.03575622      -0.00000000 final
Mo     -65.36288070      -0.92604749      -0.00000000 final
Ni     -57.62641872      -0.77331898      -0.00000000 final
Ni     -49.67394510      -0.77004090      -0.00000000 final
Ni     -41.79343861      -0.77776625      -0.00000000 final
Mo     -33.91882630      -0.72901539      -0.00000000 final
Ni     -25.99229889      -0.75569967      -0.00000000 final
Ni     -18.05328024      -0.73971828      -0.00000000 final
Ni     -10.38863368      -0.55923972      -0.00000000 final
Ni      -2.51710093      -0.40530481      -0.00000000 final
Ni     -77.46147360      -2.72630527      -0.00000000 final
Ni     -70.01501551      -2.56215967      -0.00000000 final
Fe     -62.19108866      -2.48913499      -0.00000000 final
Ni     -54.38357371      -2.37822494      -0.00000000 final
Ni     -46.58740227      -2.32601431      -0.00000000 final
Ni     -38.54991643      -2.38253510      -0.00000000 final
Mo     -30.64262574      -2.37169180      -0.00000000 final
Ni     -22.71021930      -2.40588593      -0.00000000 final
Ni     -14.98107278      -2.25526752      -0.00000000 final
Ni      -7.13159697      -2.11323087      -0.00000000 final
