520
Lattice="0.0 0.0 -7.04 4e-16 -7.870959280799259 3.5200000000000014 -102.32247065039037 0.0 -6.3e-15" Properties=species:S:1:pos:R:3:frame_label:S:1 pbc="T T T"
Ni    -100.68421613      -3.12817769      -0.00000000 random
Ni     -92.83912035      -3.15220828      -0.00000000 random
Ni     -85.08944627      -3.14675678      -0.00000000 random
Ni     -97.49635799      -1.56976201      -0.00000000 random
Ni     -89.74084859      -1.57280813      -0.00000000 random
Ni     -82.01308271      -1.56713148      -0.00000000 random
Ni    -102.32334456      -0.01198342      -0.00000000 random
Ni     -94.38747173      -0.00509226      -0.00000000 random
Ni     -86.64459173       0.00509226      -0.00000000 random
Ni     -99.01898075      -2.36834816      -1.76000000 random
Ni     -91.29121487      -2.36267151      -1.76000000 random
Ni     -83.53570547      -2.36571763      -1.76000000 random
Ni     -95.94261719      -0.78872286      -1.76000000 random
Ni     -88.19294311      -0.78327136      -1.76000000 random
Ni     -80.34784733      -0.80730195      -1.76000000 random
Ni     -98.28548225       0.00638148      -1.76000000 random
Ni     -90.51603173       0.00000000      -1.76000000 random
Mo     -82.74658121      -0.00638148      -1.76000000 random
Ni     -95.16397428      -2.36492959      -0.00000000 random
Cr     -87.41715697      -2.35689535      -0.00000000 random
Ni     -79.80510840      -2.38181110      -0.00000000 random
Ni     -99.83824749      -0.74628196      -0.00000000 random
Ni     -92.06429434      -0.79030318      -0.00000000 random
Cr     -84.32128036      -0.78349434      -0.00000000 random
Ni     -96.71078310      -3.15198530      -1.76000000 random
Ni     -88.96776911      -3.14517646      -1.76000000 random
Ni     -81.19381597      -3.18919768      -1.76000000 random
Ni    -101.22695506      -1.55366854      -1.76000000 random
Cr     -93.61490649      -1.57858429      -1.76000000 random
Ni     -85.86808917      -1.57055005      -1.76000000 random
Ni     -77.06870959      -0.80694054      -1.76000000 random
Ni     -69.19580674      -0.77997460      -1.76000000 random
Ni     -61.38003842      -0.78579651      -1.76000000 random
Ni     -53.52214389      -0.78706552      -1.76000000 random
Ni     -45.65156116      -0.78709580      -1.76000000 random
Ni     -37.78060477      -0.78709594      -1.76000000 random
Ni     -29.90966339      -0.78709706      -1.76000000 random
Mo     -22.04074162      -0.78727425      -1.76000000 random
Ni     -14.19773857      -0.79019384      -1.76000000 random
Ni      -6.39440802      -0.79036345      -1.76000000 random
Ni     -73.87450081      -2.36470172      -1.76000000 random
Ni     -66.07520422      -2.35684258      -1.76000000 random
Ni     -58.24089081      -2.36090943      -1.76000000 random
Ni     -50.37408761      -2.36128415      -1.76000000 random
Fe     -42.50317956      -2.36128776      -1.76000000 random
Ni     -34.63222203      -2.36128784      -1.76000000 random
Ni     -26.76140607      -2.36129878      -1.76000000 random
Fe     -18.89818089      -2.36202534      -1.76000000 random
Mo     -11.07228666      -2.36721621      -1.76000000 random
Cr      -3.30869562      -2.36886856      -1.76000000 random
Mo     -78.70871890       0.01198342      -0.00000000 random
Ni     -70.75281085       0.00748857      -0.00000000 random
Ni     -62.94670336       0.00210653      -0.00000000 random
Ni     -55.09579383       0.00007700      -0.00000000 random
Ni     -47.22574908       0.00000036      -0.00000000 random
Mo     -39.35479640       0.00000000      -0.00000000 random
Ni     -31.48384373      -0.00000036      -0.00000000 random
Ni     -23.61379897      -0.00007700      -0.00000000 random
Ni     -15.76288945      -0.00210653      -0.00000000 random
Ni      -7.95678196      -0.00748857      -0.00000000 random
Ni     -75.40089718      -1.56661108      -0.00000000 random
Ni     -67.63730615      -1.56826343      -0.00000000 random
Ni     -59.81141192      -1.57345430      -0.00000000 random
Ni     -51.94818674      -1.57418086      -0.00000000 random
Mo     -44.07737078      -1.57419180      -0.00000000 random
Ni     -36.20641324      -1.57419188      -0.00000000 random
Ni     -28.33550520      -1.57419549      -0.00000000 random
Ni     -20.46870199      -1.57457021      -0.00000000 random
Ni     -12.63438859      -1.57863706      -0.00000000 random
Ni      -4.83509200      -1.57077792      -0.00000000 random
Ni     -72.31518479      -3.14511619      -0.00000000 random
Ni     -64.51185424      -3.14528580      -0.00000000 random
Ni     -56.66885119      -3.14820539      -0.00000000 random
Ni     -48.79992942      -3.14838258      -0.00000000 random
Ni     -40.92898804      -3.14838370      -0.00000000 random
Ni     -33.05803165      -3.14838384      -0.00000000 random
Ni     -25.18744892      -3.14841412      -0.00000000 random
Ni     -17.32955438      -3.14968313      -0.00000000 random
Mo      -9.51378607      -3.15550504      -0.00000000 random
Ni      -1.64088322      -3.12853910      -0.00000000 random
Ni     -74.66571632      -0.00561005      -1.76000000 random
Ni     -66.85646447       0.00497554      -1.76000000 random
Ni     -59.02637329       0.00053323      -1.76000000 random
Cr     -51.16114832       0.00000638      -1.76000000 random
Ni     -43.29027523       0.00000004      -1.76000000 random
Fe     -35.41931758      -0.00000004      -1.76000000 random
Ni     -27.54844449      -0.00000638      -1.76000000 random
Ni     -19.68321952      -0.00053323      -1.76000000 random
Ni     -11.85312834      -0.00497554      -1.76000000 random
Ni      -4.04387649       0.00561005      -1.76000000 random
Ni     -71.53308978      -1.56854538      -1.76000000 random
Ni     -63.72944384      -1.57161596      -1.76000000 random
Ni     -55.88242044      -1.57407356      -1.76000000 random
Ni     -48.01284078      -1.57419122      -1.76000000 random
Cr     -40.14189223      -1.57419185      -1.76000000 random
Mo     -32.27093718      -1.57419207      -1.76000000 random
Ni     -24.40057094      -1.57424087      -1.76000000 random
Ni     -16.54598334      -1.57587304      -1.76000000 random
Ni      -8.73356633      -1.58145705      -1.76000000 random
Ni      -1.09856287      -1.55406655      -1.76000000 random
Ni     -76.22147516      -3.18885388      -1.76000000 random
Ni     -68.41614100      -3.14135486      -1.76000000 random
Mo     -60.59596359      -3.14739015      -1.76000000 random
Mo     -52.73519090      -3.14836521      -1.76000000 random
Ni     -44.86446613      -3.14838363      -1.76000000 random
Ni     -36.99350898      -3.14838373      -1.76000000 random
Mo     -29.12257996      -3.14838575      -1.76000000 random
Ni     -21.25456414      -3.14864630      -1.76000000 random
Mo     -13.41571760      -3.15208440      -1.76000000 random
Ni      -5.62315349      -3.15323213      -1.76000000 random
Ni     -73.08643932      -0.78224751      -0.00000000 random
Mo     -65.29387520      -0.78339524      -0.00000000 random
Ni     -57.45502866      -0.78683334      -0.00000000 random
Ni     -49.58701285      -0.78709389      -0.00000000 random
Ni     -41.71608383      -0.78709591      -0.00000000 random
Ni     -33.84512668      -0.78709601      -0.00000000 random
Cr     -25.97440190      -0.78711443      -0.00000000 random
Ni     -18.11362921      -0.78808949      -0.00000000 random
Ni     -10.29345181      -0.79412478      -0.00000000 random
Ni      -2.48811765      -0.74662576      -0.00000000 random
Ni     -77.61102994      -2.38141309      -0.00000000 random
Ni     -69.97602648      -2.35402259      -0.00000000 random
Mo     -62.16360947      -2.35960660      -0.00000000 random
Ni     -54.30902187      -2.36123877      -0.00000000 random
Ni     -46.43865562      -2.36128757      -0.00000000 random
Ni     -38.56770058      -2.36128779      -0.00000000 random
Ni     -30.69675203      -2.36128842      -0.00000000 random
Ni     -22.82717237      -2.36140608      -0.00000000 random
Ni     -14.98014897      -2.36386368      -0.00000000 random
Mo      -7.17650302      -2.36693426      -0.00000000 random
Mo    -100.68421613      -7.06365733       1.76000000 random
Ni     -92.83912035      -7.08768792       1.76000000 random
Ni     -85.08944627      -7.08223642       1.76000000 random
Ni     -97.49635799      -5.50524165       1.76000000 random
Ni     -89.74084859      -5.50828777       1.76000000 random
Ni     -82.01308271      -5.50261112       1.76000000 random
Cr    -102.32334456      -3.94746306       1.76000000 random
Ni     -94.38747173      -3.94057190       1.76000000 random
Cr     -86.64459173      -3.93038738       1.76000000 random
Ni     -99.01898075      -6.30382780      -0.00000000 random
Ni     -91.29121487      -6.29815115      -0.00000000 random
Ni     -83.53570547      -6.30119727      -0.00000000 random
Ni     -95.94261719      -4.72420250      -0.00000000 random
Ni     -88.19294311      -4.71875100      -0.00000000 random
Cr     -80.34784733      -4.74278159      -0.00000000 random
Ni     -98.28548225      -3.92909816      -0.00000000 random
Ni     -90.51603173      -3.93547964      -0.00000000 random
Ni     -82.74658121      -3.94186112      -0.00000000 random
Fe     -95.16397428      -6.30040923       1.76000000 random
Ni     -87.41715697      -6.29237499       1.76000000 random
Ni     -79.80510840      -6.31729074       1.76000000 random
Ni     -99.83824749      -4.68176160       1.76000000 random
Ni     -92.06429434      -4.72578282       1.76000000 random
Ni     -84.32128036      -4.71897399       1.76000000 random
Cr     -96.71078310      -7.08746494      -0.00000000 random
Ni     -88.96776911      -7.08065610      -0.00000000 random
Ni     -81.19381597      -7.12467732      -0.00000000 random
Ni    -101.22695506      -5.48914818      -0.00000000 random
Ni     -93.61490649      -5.51406393      -0.00000000 random
Ni     -85.86808917      -5.50602970      -0.00000000 random
Ni     -77.06870959      -4.74242018      -0.00000000 random
Ni     -69.19580674      -4.71545424      -0.00000000 random
Ni     -61.38003842      -4.72127615      -0.00000000 random
Ni     -53.52214389      -4.72254516      -0.00000000 random
Cr     -45.65156116      -4.72257544      -0.00000000 random
Ni     -37.78060477      -4.72257558      -0.00000000 random
Ni     -29.90966339      -4.72257670      -0.00000000 random
Ni     -22.04074162      -4.72275389      -0.00000000 random
Mo     -14.19773857      -4.72567348      -0.00000000 random
Cr      -6.39440802      -4.72584309      -0.00000000 random
Ni     -73.87450081      -6.30018136      -0.00000000 random
Ni     -66.07520422      -6.29232222      -0.00000000 random
Ni     -58.24089081      -6.29638907      -0.00000000 random
Fe     -50.37408761      -6.29676379      -0.00000000 random
Ni     -42.50317956      -6.29676740      -0.00000000 random
Ni     -34.63222203      -6.29676748      -0.00000000 random
Ni     -26.76140607      -6.29677842      -0.00000000 random
Ni     -18.89818089      -6.29750498      -0.00000000 random
Ni     -11.07228666      -6.30269585      -0.00000000 random
Ni      -3.30869562      -6.30434820      -0.00000000 random
Ni     -78.70871890      -3.92349622       1.76000000 random
Ni     -70.75281085      -3.92799107       1.76000000 random
Ni     -62.94670336      -3.93337312       1.76000000 random
Mo     -55.09579383      -3.93540264       1.76000000 random
Ni     -47.22574908      -3.93547928       1.76000000 random
Cr     -39.35479640      -3.93547964       1.76000000 random
Mo     -31.48384373      -3.93548000       1.76000000 random
Ni     -23.61379897      -3.93555664       1.76000000 random
Ni     -15.76288945      -3.93758617       1.76000000 random
Ni      -7.95678196      -3.94296821       1.76000000 random
Ni     -75.40089718      -5.50209072       1.76000000 random
Ni     -67.63730615      -5.50374307       1.76000000 random
Ni     -59.81141192      -5.50893394       1.76000000 random
Mo     -51.94818674      -5.50966050       1.76000000 random
Ni     -44.07737078      -5.50967144       1.76000000 random
Ni     -36.20641324      -5.50967152       1.76000000 random
Ni     -28.33550520      -5.50967513       1.76000000 random
Ni     -20.46870199      -5.51004985       1.76000000 random
Cr     -12.63438859      -5.51411670       1.76000000 random
Ni      -4.83509200      -5.50625756       1.76000000 random
Ni     -72.31518479      -7.08059583       1.76000000 random
Ni     -64.51185424      -7.08076544       1.76000000 random
Ni     -56.66885119      -7.08368503       1.76000000 random
Ni     -48.79992942      -7.08386222       1.76000000 random
Ni     -40.92898804      -7.08386334       1.76000000 random
Ni     -33.05803165      -7.08386348       1.76000000 random
Ni     -25.18744892      -7.08389376       1.76000000 random
Ni     -17.32955438      -7.08516277       1.76000000 random
Ni      -9.51378607      -7.09098468       1.76000000 random
Ni      -1.64088322      -7.06401874       1.76000000 random
Mo     -74.66571632      -3.94108969      -0.00000000 random
Ni     -66.85646447      -3.93050410      -0.00000000 random
Mo     -59.02637329      -3.93494641      -0.00000000 random
Ni     -51.16114832      -3.93547326      -0.00000000 random
Fe     -43.29027523      -3.93547960      -0.00000000 random
Ni     -35.41931758      -3.93547968      -0.00000000 random
Fe     -27.54844449      -3.93548602      -0.00000000 random
Ni     -19.68321952      -3.93601287      -0.00000000 random
Mo     -11.85312834      -3.94045518      -0.00000000 random
Ni      -4.04387649      -3.92986959      -0.00000000 random
Ni     -71.53308978      -5.50402502      -0.00000000 random
Mo     -63.72944384      -5.50709561      -0.00000000 random
Ni     -55.88242044      -5.50955320      -0.00000000 random
Ni     -48.01284078      -5.50967086      -0.00000000 random
Ni     -40.14189223      -5.50967149      -0.00000000 random
Ni     -32.27093718      -5.50967171      -0.00000000 random
Ni     -24.40057094      -5.50972051      -0.00000000 random
Cr     -16.54598334      -5.51135268      -0.00000000 random
Mo      -8.73356633      -5.51693669      -0.00000000 random
Mo      -1.09856287      -5.48954619      -0.00000000 random
Ni     -76.22147516      -7.12433352      -0.00000000 random
Ni     -68.41614100      -7.07683450      -0.00000000 random
Cr     -60.59596359      -7.08286979      -0.00000000 random
Ni     -52.73519090      -7.08384485      -0.00000000 random
Ni     -44.86446613      -7.08386327      -0.00000000 random
Fe     -36.99350898      -7.08386337      -0.00000000 random
Cr     -29.12257996      -7.08386539      -0.00000000 random
Ni     -21.25456414      -7.08412594      -0.00000000 random
Ni     -13.41571760      -7.08756404      -0.00000000 random
Ni      -5.62315349      -7.08871177      -0.00000000 random
Fe     -73.08643932      -4.71772716       1.76000000 random
Ni     -65.29387520      -4.71887488       1.76000000 random
Ni     -57.45502866      -4.72231298       1.76000000 random
Ni     -49.58701285      -4.72257353       1.76000000 random
Ni     -41.71608383      -4.72257555       1.76000000 random
Cr     -33.84512668      -4.72257565       1.76000000 random
Ni     -25.97440190      -4.72259407       1.76000000 random
Mo     -18.11362921      -4.72356913       1.76000000 random
Ni     -10.29345181      -4.72960442       1.76000000 random
Fe      -2.48811765      -4.68210540       1.76000000 random
Ni     -77.61102994      -6.31689273       1.76000000 random
Ni     -69.97602648      -6.28950223       1.76000000 random
Mo     -62.16360947      -6.29508624       1.76000000 random
Ni     -54.30902187      -6.29671841       1.76000000 random
Ni     -46.43865562      -6.29676721       1.76000000 random
Ni     -38.56770058      -6.29676743       1.76000000 random
Ni     -30.69675203      -6.29676806       1.76000000 random
Ni     -22.82717237      -6.29688572       1.76000000 random
Ni     -14.98014897      -6.29934332       1.76000000 random
Fe      -7.17650302      -6.30241390       1.76000000 random
Cr    -100.68421613      -3.12817769      -3.52000000 random
Mo     -92.83912035      -3.15220828      -3.52000000 random
Ni     -85.08944627      -3.14675678      -3.52000000 random
Ni     -97.49635799      -1.56976201      -3.52000000 random
Cr     -89.74084859      -1.57280813      -3.52000000 random
Ni     -82.01308271      -1.56713148      -3.52000000 random
Ni    -102.32334456      -0.01198342      -3.52000000 random
Ni     -94.38747173      -0.00509226      -3.52000000 random
Ni     -86.64459173       0.00509226      -3.52000000 random
Ni     -99.01898075      -2.36834816      -5.28000000 random
Ni     -91.29121487      -2.36267151      -5.28000000 random
Ni     -83.53570547      -2.36571763      -5.28000000 random
Ni     -95.94261719      -0.78872286      -5.28000000 random
Ni     -88.19294311      -0.78327136      -5.28000000 random
Ni     -80.34784733      -0.80730195      -5.28000000 random
Ni     -98.28548225       0.00638148      -5.28000000 random
Cr     -90.51603173       0.00000000      -5.28000000 random
Ni     -82.74658121      -0.00638148      -5.28000000 random
Ni     -95.16397428      -2.36492959      -3.52000000 random
Fe     -87.41715697      -2.35689535      -3.52000000 random
Ni     -79.80510840      -2.38181110      -3.52000000 random
Cr     -99.83824749      -0.74628196      -3.52000000 random
Ni     -92.06429434      -0.79030318      -3.52000000 random
Cr     -84.32128036      -0.78349434      -3.52000000 random
Ni     -96.71078310      -3.15198530      -5.28000000 random
Mo     -88.96776911      -3.14517646      -5.28000000 random
Ni     -81.19381597      -3.18919768      -5.28000000 random
Ni    -101.22695506      -1.55366854      -5.28000000 random
Ni     -93.61490649      -1.57858429      -5.28000000 random
Cr     -85.86808917      -1.57055005      -5.28000000 random
Ni     -77.06870959      -0.80694054      -5.28000000 random
Ni     -69.19580674      -0.77997460      -5.28000000 random
Ni     -61.38003842      -0.78579651      -5.28000000 random
Fe     -53.52214389      -0.78706552      -5.28000000 random
Mo     -45.65156116      -0.78709580      -5.28000000 random
Ni     -37.78060477      -0.78709594      -5.28000000 random
Ni     -29.90966339      -0.78709706      -5.28000000 random
Ni     -22.04074162      -0.78727425      -5.28000000 random
Ni     -14.19773857      -0.79019384      -5.28000000 random
Ni      -6.39440802      -0.79036345      -5.28000000 random
Fe     -73.87450081      -2.36470172      -5.28000000 random
Mo     -66.07520422      -2.35684258      -5.28000000 random
Ni     -58.24089081      -2.36090943      -5.28000000 random
Fe     -50.37408761      -2.36128415      -5.28000000 random
Ni     -42.50317956      -2.36128776      -5.28000000 random
Ni     -34.63222203      -2.36128784      -5.28000000 random
Mo     -26.76140607      -2.36129878      -5.28000000 random
Mo     -18.89818089      -2.36202534      -5.28000000 random
Ni     -11.07228666      -2.36721621      -5.28000000 random
Ni      -3.30869562      -2.36886856      -5.28000000 random
Ni     -78.70871890       0.01198342      -3.52000000 random
Cr     -70.75281085       0.00748857      -3.52000000 random
Ni     -62.94670336       0.00210653      -3.52000000 random
Cr     -55.09579383       0.00007700      -3.52000000 random
Ni     -47.22574908       0.00000036      -3.52000000 random
Ni     -39.35479640       0.00000000      -3.52000000 random
Ni     -31.48384373      -0.00000036      -3.52000000 random
Ni     -23.61379897      -0.00007700      -3.52000000 random
Ni     -15.76288945      -0.00210653      -3.52000000 random
Mo      -7.95678196      -0.00748857      -3.52000000 random
Mo     -75.40089718      -1.56661108      -3.52000000 random
Ni     -67.63730615      -1.56826343      -3.52000000 random
Mo     -59.81141192      -1.57345430      -3.52000000 random
Cr     -51.94818674      -1.57418086      -3.52000000 random
Ni     -44.07737078      -1.57419180      -3.52000000 random
Ni     -36.20641324      -1.57419188      -3.52000000 random
Ni     -28.33550520      -1.57419549      -3.52000000 random
Ni     -20.46870199      -1.57457021      -3.52000000 random
Ni     -12.63438859      -1.57863706      -3.52000000 random
Ni      -4.83509200      -1.57077792      -3.52000000 random
Ni     -72.31518479      -3.14511619      -3.52000000 random
Ni     -64.51185424      -3.14528580      -3.52000000 random
Ni     -56.66885119      -3.14820539      -3.52000000 random
Ni     -48.79992942      -3.14838258      -3.52000000 random
Cr     -40.92898804      -3.14838370      -3.52000000 random
Ni     -33.05803165      -3.14838384      -3.52000000 random
Ni     -25.18744892      -3.14841412      -3.52000000 random
Ni     -17.32955438      -3.14968313      -3.52000000 random
Mo      -9.51378607      -3.15550504      -3.52000000 random
Ni      -1.64088322      -3.12853910      -3.52000000 random
Cr     -74.66571632      -0.00561005      -5.28000000 random
Ni     -66.85646447       0.00497554      -5.28000000 random
Fe     -59.02637329       0.00053323      -5.28000000 random
Ni     -51.16114832       0.00000638      -5.28000000 random
Ni     -43.29027523       0.00000004      -5.28000000 random
Ni     -35.41931758      -0.00000004      -5.28000000 random
Ni     -27.54844449      -0.00000638      -5.28000000 random
Ni     -19.68321952      -0.00053323      -5.28000000 random
Ni     -11.85312834      -0.00497554      -5.28000000 random
Ni      -4.04387649       0.00561005      -5.28000000 random
Ni     -71.53308978      -1.56854538      -5.28000000 random
Cr     -63.72944384      -1.57161596      -5.28000000 random
Ni     -55.88242044      -1.57407356      -5.28000000 random
Ni     -48.01284078      -1.57419122      -5.28000000 random
Ni     -40.14189223      -1.57419185      -5.28000000 random
Fe     -32.27093718      -1.57419207      -5.28000000 random
Ni     -24.40057094      -1.57424087      -5.28000000 random
Mo     -16.54598334      -1.57587304      -5.28000000 random
Ni      -8.73356633      -1.58145705      -5.28000000 random
Ni      -1.09856287      -1.55406655      -5.28000000 random
Ni     -76.22147516      -3.18885388      -5.28000000 random
Ni     -68.41614100      -3.14135486      -5.28000000 random
Ni     -60.59596359      -3.14739015      -5.28000000 random
Ni     -52.73519090      -3.14836521      -5.28000000 random
Ni     -44.86446613      -3.14838363      -5.28000000 random
Ni     -36.99350898      -3.14838373      -5.28000000 random
Ni     -29.12257996      -3.14838575      -5.28000000 random
Ni     -21.25456414      -3.14864630      -5.28000000 random
Ni     -13.41571760      -3.15208440      -5.28000000 random
Mo      -5.62315349      -3.15323213      -5.28000000 random
Ni     -73.08643932      -0.78224751      -3.52000000 random
Ni     -65.29387520      -0.78339524      -3.52000000 random
Ni     -57.45502866      -0.78683334      -3.52000000 random
Ni     -49.58701285      -0.78709389      -3.52000000 random
Ni     -41.71608383      -0.78709591      -3.52000000 random
Ni     -33.84512668      -0.78709601      -3.52000000 random
Cr     -25.97440190      -0.78711443      -3.52000000 random
Ni     -18.11362921      -0.78808949      -3.52000000 random
Ni     -10.29345181      -0.79412478      -3.52000000 random
Ni      -2.48811765      -0.74662576      -3.52000000 random
Ni     -77.61102994      -2.38141309      -3.52000000 random
Cr     -69.97602648      -2.35402259      -3.52000000 random
Ni     -62.16360947      -2.35960660      -3.52000000 random
Cr     -54.30902187      -2.36123877      -3.52000000 random
Ni     -46.43865562      -2.36128757      -3.52000000 random
Ni     -38.56770058      -2.36128779      -3.52000000 random
Ni     -30.69675203      -2.36128842      -3.52000000 random
Ni     -22.82717237      -2.36140608      -3.52000000 random
Ni     -14.98014897      -2.36386368      -3.52000000 random
Ni      -7.17650302      -2.36693426      -3.52000000 random
Ni    -100.68421613      -7.06365733      -1.76000000 random
Ni     -92.83912035      -7.08768792      -1.76000000 random
Ni     -85.08944627      -7.08223642      -1.76000000 random
Ni     -97.49635799      -5.50524165      -1.76000000 random
Ni     -89.74084859      -5.50828777      -1.76000000 random
Ni     -82.01308271      -5.50261112      -1.76000000 random
Fe    -102.32334456      -3.94746306      -1.76000000 random
Ni     -94.38747173      -3.94057190      -1.76000000 random
Ni     -86.64459173      -3.93038738      -1.76000000 random
Ni     -99.01898075      -6.30382780      -3.52000000 random
Ni     -91.29121487      -6.29815115      -3.52000000 random
Cr     -83.53570547      -6.30119727      -3.52000000 random
Ni     -95.94261719      -4.72420250      -3.52000000 random
Ni     -88.19294311      -4.71875100      -3.52000000 random
Ni     -80.34784733      -4.74278159      -3.52000000 random
Ni     -98.28548225      -3.92909816      -3.52000000 random
Mo     -90.51603173      -3.93547964      -3.52000000 random
Fe     -82.74658121      -3.94186112      -3.52000000 random
Ni     -95.16397428      -6.30040923      -1.76000000 random
Mo     -87.41715697      -6.29237499      -1.76000000 random
Mo     -79.80510840      -6.31729074      -1.76000000 random
Ni     -99.83824749      -4.68176160      -1.76000000 random
Ni     -92.06429434      -4.72578282      -1.76000000 random
Cr     -84.32128036      -4.71897399      -1.76000000 random
Fe     -96.71078310      -7.08746494      -3.52000000 random
Mo     -88.96776911      -7.08065610      -3.52000000 random
Mo     -81.19381597      -7.12467732      -3.52000000 random
Ni    -101.22695506      -5.48914818      -3.52000000 random
Ni     -93.61490649      -5.51406393      -3.52000000 random
Ni     -85.86808917      -5.50602970      -3.52000000 random
Ni     -77.06870959      -4.74242018      -3.52000000 random
Ni     -69.19580674      -4.71545424      -3.52000000 random
Mo     -61.38003842      -4.72127615      -3.52000000 random
Ni     -53.52214389      -4.72254516      -3.52000000 random
Mo     -45.65156116      -4.72257544      -3.52000000 random
Ni     -37.78060477      -4.72257558      -3.52000000 random
Ni     -29.90966339      -4.72257670      -3.52000000 random
Ni     -22.04074162      -4.72275389      -3.52000000 random
Fe     -14.19773857      -4.72567348      -3.52000000 random
Ni      -6.39440802      -4.72584309      -3.52000000 random
Ni     -73.87450081      -6.30018136      -3.52000000 random
Ni     -66.07520422      -6.29232222      -3.52000000 random
Ni     -58.24089081      -6.29638907      -3.52000000 random
Ni     -50.37408761      -6.29676379      -3.52000000 random
Cr     -42.50317956      -6.29676740      -3.52000000 random
Ni     -34.63222203      -6.29676748      -3.52000000 random
Ni     -26.76140607      -6.29677842      -3.52000000 random
Ni     -18.89818089      -6.29750498      -3.52000000 random
Ni     -11.07228666      -6.30269585      -3.52000000 random
Ni      -3.30869562      -6.30434820      -3.52000000 random
Ni     -78.70871890      -3.92349622      -1.76000000 random
Ni     -70.75281085      -3.92799107      -1.76000000 random
Ni     -62.94670336      -3.93337312      -1.76000000 random
Mo     -55.09579383      -3.93540264      -1.76000000 random
Ni     -47.22574908      -3.93547928      -1.76000000 random
Ni     -39.35479640      -3.93547964      -1.76000000 random
Cr     -31.48384373      -3.93548000      -1.76000000 random
Ni     -23.61379897      -3.93555664      -1.76000000 random
Ni     -15.76288945      -3.93758617      -1.76000000 random
Ni      -7.95678196      -3.94296821      -1.76000000 random
Ni     -75.40089718      -5.50209072      -1.76000000 random
Ni     -67.63730615      -5.50374307      -1.76000000 random
Ni     -59.81141192      -5.50893394      -1.76000000 random
Ni     -51.94818674      -5.50966050      -1.76000000 random
Ni     -44.07737078      -5.50967144      -1.76000000 random
Ni     -36.20641324      -5.50967152      -1.76000000 random
Ni     -28.33550520      -5.50967513      -1.76000000 random
Ni     -20.46870199      -5.51004985      -1.76000000 random
Mo     -12.63438859      -5.51411670      -1.76000000 random
Ni      -4.83509200      -5.50625756      -1.76000000 random
Ni     -72.31518479      -7.08059583      -1.76000000 random
Ni     -64.51185424      -7.08076544      -1.76000000 random
Ni     -56.66885119      -7.08368503      -1.76000000 random
Ni     -48.79992942      -7.08386222      -1.76000000 random
Ni     -40.92898804      -7.08386334      -1.76000000 random
Ni     -33.05803165      -7.08386348      -1.76000000 random
Ni     -25.18744892      -7.08389376      -1.76000000 random
Ni     -17.32955438      -7.08516277      -1.76000000 random
Ni      -9.51378607      -7.09098468      -1.76000000 random
Ni      -1.64088322      -7.06401874      -1.76000000 random
Ni     -74.66571632      -3.94108969      -3.52000000 random
Mo     -66.85646447      -3.93050410      -3.52000000 random
Mo     -59.02637329      -3.93494641      -3.52000000 random
Ni     -51.16114832      -3.93547326      -3.52000000 random
Ni     -43.29027523      -3.93547960      -3.52000000 random
Cr     -35.41931758      -3.93547968      -3.52000000 random
Ni     -27.54844449      -3.93548602      -3.52000000 random
Ni     -19.68321952      -3.93601287      -3.52000000 random
Ni     -11.85312834      -3.94045518      -3.52000000 random
Ni      -4.04387649      -3.92986959      -3.52000000 random
Ni     -71.53308978      -5.50402502      -3.52000000 random
Ni     -63.72944384      -5.50709561      -3.52000000 random
Ni     -55.88242044      -5.50955320      -3.52000000 random
Ni     -48.01284078      -5.50967086      -3.52000000 random
Ni     -40.14189223      -5.50967149      -3.52000000 random
Ni     -32.27093718      -5.50967171      -3.52000000 random
Ni     -24.40057094      -5.50972051      -3.52000000 random
Ni     -16.54598334      -5.51135268      -3.52000000 random
Ni      -8.73356633      -5.51693669      -3.52000000 random
Mo      -1.09856287      -5.48954619      -3.52000000 random
Ni     -76.22147516      -7.12433352      -3.52000000 random
Ni     -68.41614100      -7.07683450      -3.52000000 random
Cr     -60.59596359      -7.08286979      -3.52000000 random
Ni     -52.73519090      -7.08384485      -3.52000000 random
Ni     -44.86446613      -7.08386327      -3.52000000 random
Ni     -36.99350898      -7.08386337      -3.52000000 random
Cr     -29.12257996      -7.08386539      -3.52000000 random
Ni     -21.25456414      -7.08412594      -3.52000000 random
Ni     -13.41571760      -7.08756404      -3.52000000 random
Ni      -5.62315349      -7.08871177      -3.52000000 random
Ni     -73.08643932      -4.71772716      -1.76000000 random
Ni     -65.29387520      -4.71887488      -1.76000000 random
Ni     -57.45502866      -4.72231298      -1.76000000 random
Cr     -49.58701285      -4.72257353      -1.76000000 random
Ni     -41.71608383      -4.72257555      -1.76000000 random
Ni     -33.84512668      -4.72257565      -1.76000000 random
Ni     -25.97440190      -4.72259407      -1.76000000 random
Ni     -18.11362921      -4.72356913      -1.76000000 random
Ni     -10.29345181      -4.72960442      -1.76000000 random
Ni      -2.48811765      -4.68210540      -1.76000000 random
Ni     -77.61102994      -6.31689273      -1.76000000 random
Ni     -69.97602648      -6.28950223      -1.76000000 random
Ni     -62.16360947      -6.29508624      -1.76000000 random
Ni     -54.30902187      -6.29671841      -1.76000000 random
Ni     -46.43865562      -6.29676721      -1.76000000 random
Ni     -38.56770058      -6.29676743      -1.76000000 random
Ni     -30.69675203      -6.29676806      -1.76000000 random
Ni     -22.82717237      -6.29688572      -1.76000000 random
Ni     -14.98014897      -6.29934332      -1.76000000 random
Ni      -7.17650302      -6.30241390      -1.76000000 random
520
Lattice="0.0 0.0 -7.04 4e-16 -7.870959280799259 3.5200000000000014 -102.32247065039037 0.0 -6.3e-15" Properties=species:S:1:pos:R:3:frame_label:S:1 pbc="T T T"
Mo    -100.83133167      -2.86632340       0.02191931 snap1000
Ni     -92.82013714      -3.06602580       0.04411144 snap1000
Ni     -85.10484962      -3.05375194       0.00237843 snap1000
Ni     -97.48662038      -1.41062486       0.02081129 snap1000
Fe     -89.71547937      -1.51508355       0.00340302 snap1000
Ni     -81.97277614      -1.43755467      -0.00481064 snap1000
Cr    -102.39112621      -0.37165245       0.01077195 snap1000
Ni     -94.36819013       0.10012851       0.01812788 snap1000
Fe     -86.59999775       0.05138688       0.00657999 snap1000
Ni     -99.01226274      -2.17068817      -1.75443485 snap1000
Ni     -91.24677637      -2.31361948      -1.74890306 snap1000
Ni     -83.54033737      -2.25211217      -1.77110731 snap1000
Ni     -95.95345879      -0.65234858      -1.75146082 snap1000
Ni     -88.15278557      -0.74641286      -1.75614627 snap1000
Ni     -80.30153542      -0.65816074      -1.78169947 snap1000
Ni     -98.30039307       0.17236281      -1.73813930 snap1000
Ni     -90.48656805       0.03278410      -1.78765297 snap1000
Cr     -82.73712232       0.08126767      -1.79663790 snap1000
Ni     -95.15636502      -2.24686524       0.07174102 snap1000
Ni     -87.39037271      -2.27954642       0.00286393 snap1000
Cr     -79.74840598      -2.11057639       0.01224065 snap1000
Ni     -99.84607145      -0.55594687      -0.00706516 snap1000
Ni     -92.03383788      -0.73197630       0.03327778 snap1000
Ni     -84.30000825      -0.72689177      -0.00276427 snap1000
Mo     -96.69110132      -3.03595951      -1.75423444 snap1000
Cr     -88.94321734      -3.05852474      -1.70028552 snap1000
Ni     -81.14357801      -2.98037039      -1.75853273 snap1000
Ni    -101.21393899      -1.40683116      -1.82996527 snap1000
Mo     -93.59429837      -1.49387970      -1.75764139 snap1000
Cr     -85.85804707      -1.50657717      -1.75602190 snap1000
Mo     -77.33182831      -1.09218822      -1.75847786 snap1000
Ni     -69.19285091      -0.78649685      -1.77130656 snap1000
Ni     -61.26537550      -0.82379368      -1.79552778 snap1000
Cr     -53.40497088      -0.82796305      -1.75795382 snap1000
Ni     -45.51040332      -0.83584412      -1.76786339 snap1000
Ni     -37.81950364      -0.79637615      -1.80007372 snap1000
Ni     -29.95810637      -0.76764254      -1.78834263 snap1000
Mo     -22.14767298      -0.76723206      -1.75193540 snap1000
Ni     -14.30224135      -0.80446813      -1.79725404 snap1000
Ni      -6.44199848      -0.84325003      -1.76468086 snap1000
Ni     -73.91482143      -2.54068487      -1.78918740 snap1000
Ni     -66.06073552      -2.32147776      -1.79864256 snap1000
Ni     -58.10652471      -2.36395218      -1.72815415 snap1000
Mo     -50.25403863      -2.37503483      -1.75972016 snap1000
Ni     -42.45398913      -2.38819455      -1.76084150 snap1000
Ni     -34.65831856      -2.40733428      -1.76109614 snap1000
Ni     -26.83917611      -2.33430192      -1.72423050 snap1000
Ni     -19.06568885      -2.34872534      -1.77119788 snap1000
Ni     -11.17292464      -2.41640966      -1.80846297 snap1000
Cr      -3.27557883      -2.55495664      -1.75614295 snap1000
Ni     -78.73740644       0.16375599       0.00013596 snap1000
Ni     -70.77994984      -0.01287759      -0.03912870 snap1000
Ni     -62.87211933       0.00888798      -0.01135309 snap1000
Ni     -54.98273529      -0.03041204      -0.01332303 snap1000
Mo     -47.08275726      -0.02264425       0.00592573 snap1000
Mo     -39.36271253       0.00742475      -0.01034857 snap1000
Mo     -31.52575246       0.01586114       0.00587852 snap1000
Ni     -23.70249967       0.03314271       0.02497179 snap1000
Ni     -15.88565650       0.03237934      -0.00422387 snap1000
Ni      -7.99257051      -0.04237172       0.00337274 snap1000
Ni     -75.45308272      -1.78457968      -0.01408603 snap1000
Ni     -67.62176693      -1.56978775      -0.00743301 snap1000
Ni     -59.66212938      -1.59584349      -0.00338578 snap1000
Ni     -51.86121032      -1.58902466       0.01988176 snap1000
Ni     -43.99775624      -1.61318353       0.00306085 snap1000
Ni     -36.28896270      -1.58362074       0.01654121 snap1000
Ni     -28.41849241      -1.54785162       0.02584802 snap1000
Ni     -20.59074196      -1.57952908       0.03253436 snap1000
Ni     -12.74351921      -1.57784731       0.00090910 snap1000
Ni      -4.83290547      -1.69899038      -0.01738731 snap1000
Ni     -72.39291331      -3.26450352       0.00174809 snap1000
Ni     -64.48759009      -3.12536567       0.03010766 snap1000
Ni     -56.57493920      -3.14460336       0.00108724 snap1000
Ni     -48.71046504      -3.17731306       0.03695136 snap1000
Ni     -40.89325956      -3.14297114       0.00518608 snap1000
Ni     -33.09914556      -3.16555137       0.00609854 snap1000
Cr     -25.25436738      -3.10930828       0.05931587 snap1000
Ni     -17.51406169      -3.15192489      -0.00289233 snap1000
Ni      -9.56760932      -3.24238901       0.00056309 snap1000
Ni      -1.60976543      -3.28151161      -0.01861761 snap1000
Ni     -74.68767978      -0.18164933      -1.80233064 snap1000
Ni     -66.84692058       0.01512110      -1.79410582 snap1000
Fe     -58.88364192      -0.02494743      -1.76800428 snap1000
Ni     -51.09488844      -0.01495344      -1.73084084 snap1000
Ni     -43.20507080      -0.03660263      -1.78249367 snap1000
Mo     -35.45081130      -0.00796710      -1.76826384 snap1000
Ni     -27.64470427       0.01525860      -1.75475852 snap1000
Ni     -19.80503172       0.05277154      -1.77969988 snap1000
Ni     -11.94227316      -0.03945578      -1.78718525 snap1000
Mo      -4.02944262      -0.07925922      -1.76144937 snap1000
Ni     -71.61652902      -1.62945094      -1.80920016 snap1000
Ni     -63.68636009      -1.56010255      -1.83433009 snap1000
Ni     -55.75937318      -1.56408579      -1.74915100 snap1000
Ni     -47.88658679      -1.62521222      -1.74732508 snap1000
Ni     -40.16613071      -1.59330709      -1.78941490 snap1000
Ni     -32.30950612      -1.59656200      -1.77752613 snap1000
Ni     -24.49556023      -1.60162165      -1.72644580 snap1000
Ni     -16.69527038      -1.57815417      -1.79137886 snap1000
Ni      -8.80630478      -1.64539836      -1.78871399 snap1000
Ni      -1.08355711      -1.75203659      -1.76146108 snap1000
Ni     -76.23499270      -3.42104836      -1.76792066 snap1000
Ni     -68.38581147      -3.18543958      -1.76052692 snap1000
Ni     -60.46421499      -3.15372561      -1.75740375 snap1000
Ni     -52.61777167      -3.15141907      -1.76651769 snap1000
Ni     -44.75988603      -3.17990049      -1.74296251 snap1000
Ni     -37.02270227      -3.13770592      -1.76710754 snap1000
Mo     -29.18822406      -3.15655928      -1.76567164 snap1000
Ni     -21.35640713      -3.15478464      -1.76097745 snap1000
Ni     -13.54595503      -3.14227100      -1.80810761 snap1000
Ni      -5.60133201      -3.28130671      -1.75385200 snap1000
Mo     -73.14339644      -0.88011744      -0.00410340 snap1000
Mo     -65.25108103      -0.75008636      -0.00594161 snap1000
Cr     -57.31132992      -0.77730455       0.00594425 snap1000
Ni     -49.50750333      -0.80376885       0.03654448 snap1000
Fe     -41.72103529      -0.80343769       0.00096207 snap1000
Ni     -33.87784450      -0.81650463      -0.00132263 snap1000
Ni     -26.04791039      -0.77979728       0.00952445 snap1000
Mo     -18.25665760      -0.75126453       0.00400895 snap1000
Mo     -10.35834031      -0.85065017      -0.00578155 snap1000
Ni      -2.47005018      -0.90273978       0.01026083 snap1000
Ni     -77.61741034      -2.66242363       0.00372376 snap1000
Mo     -70.02691469      -2.39075780      -0.00936769 snap1000
Mo     -62.10650326      -2.34869208      -0.00201532 snap1000
Ni     -54.17192620      -2.35473092      -0.00690312 snap1000
Fe     -46.31679805      -2.42675502       0.00774624 snap1000
Ni     -38.58428136      -2.38035101       0.01174371 snap1000
Ni     -30.76965134      -2.38292322       0.02524977 snap1000
Ni     -22.92846420      -2.37141374       0.02465376 snap1000
Mo     -15.12642007      -2.36677542       0.00705838 snap1000
Mo      -7.21620971      -2.44610889      -0.00359523 snap1000
Mo    -100.89744993      -6.84184224       1.80347834 snap1000
Ni     -92.80741606      -6.99155306       1.73439400 snap1000
Ni     -85.05790808      -7.05979669       1.75897149 snap1000
Ni     -97.47203054      -5.37108875       1.76877583 snap1000
Ni     -89.71627359      -5.46704667       1.69853592 snap1000
Ni     -81.95155141      -5.40778389       1.73471082 snap1000
Ni    -102.34690660      -4.03664689       1.79772741 snap1000
Ni     -94.37492863      -3.82571338       1.76023814 snap1000
Ni     -86.61643019      -3.85434026       1.74157071 snap1000
Ni     -98.98738652      -6.14559457       0.01718433 snap1000
Cr     -91.26626410      -6.24322828       0.00971386 snap1000
Ni     -83.52550067      -6.26234155       0.00802313 snap1000
Ni     -95.93708213      -4.59915639       0.06415326 snap1000
Fe     -88.14506278      -4.65736904      -0.00379761 snap1000
Ni     -80.31156966      -4.52708713       0.00282439 snap1000
Ni     -98.27433873      -3.76224456       0.03283969 snap1000
Ni     -90.49028590      -3.86766539       0.00431035 snap1000
Mo     -82.76018292      -3.82819054       0.00573070 snap1000
Fe     -95.15618714      -6.21133957       1.77146161 snap1000
Ni     -87.37442630      -6.27381510       1.73749164 snap1000
Cr     -79.68502584      -6.05998344       1.67178791 snap1000
Ni     -99.76164741      -4.48034946       1.76014666 snap1000
Ni     -92.01788060      -4.63770546       1.73507585 snap1000
Ni     -84.33073873      -4.67719626       1.76435847 snap1000
Ni     -96.72076679      -6.97236867       0.03070013 snap1000
Ni     -88.93749772      -7.05470712       0.00855197 snap1000
Ni     -81.14719113      -6.96824200       0.01701463 snap1000
Ni    -101.11533797      -5.21951218      -0.00304616 snap1000
Ni     -93.57419172      -5.41640123       0.03570310 snap1000
Fe     -85.84303434      -5.46985457       0.00322665 snap1000
Mo     -77.33207878      -5.03466489      -0.03076278 snap1000
Ni     -69.19560833      -4.75130153       0.02108952 snap1000
Ni     -61.24989122      -4.70612819      -0.00537460 snap1000
Ni     -53.36413135      -4.77479344       0.00293602 snap1000
Fe     -45.51788358      -4.74788047       0.00400628 snap1000
Ni     -37.78414830      -4.68422932       0.00847513 snap1000
Ni     -29.97118100      -4.73582284       0.02707372 snap1000
Fe     -22.12850290      -4.69758613       0.00171954 snap1000
Ni     -14.35382076      -4.75698071       0.02629549 snap1000
Ni      -6.42261858      -4.86096381      -0.00863909 snap1000
Ni     -73.88733766      -6.42899401      -0.00025860 snap1000
Ni     -66.07059425      -6.26614863       0.03447985 snap1000
Ni     -58.11550321      -6.31771597      -0.00576372 snap1000
Mo     -50.29842067      -6.30816063      -0.00074305 snap1000
Ni     -42.42956803      -6.29995276      -0.00098363 snap1000
Ni     -34.66593652      -6.23099388       0.01041542 snap1000
Ni     -26.85317826      -6.28738112       0.02705997 snap1000
Ni     -19.03039005      -6.23100891      -0.00596982 snap1000
Ni     -11.12566826      -6.34199132       0.02160805 snap1000
Ni      -3.32107534      -6.42986886      -0.06023896 snap1000
Ni     -78.78911629      -3.75553306       1.75321419 snap1000
Ni     -70.81160071      -4.00143734       1.75845199 snap1000
Ni     -62.89073988      -3.90018088       1.79540391 snap1000
Mo     -54.97253012      -3.96464111       1.74990560 snap1000
Ni     -47.11739741      -3.96198711       1.74338472 snap1000
Cr     -39.32961620      -3.91802720       1.76537504 snap1000
Cr     -31.54281206      -3.93364358       1.76211594 snap1000
Ni     -23.69967280      -3.92560778       1.75331973 snap1000
Ni     -15.93184823      -3.93190689       1.79220230 snap1000
Ni      -8.01113380      -4.06604808       1.76376861 snap1000
Ni     -75.40632331      -5.68464124       1.74753841 snap1000
Cr     -67.65629396      -5.52121333       1.74411851 snap1000
Ni     -59.66944168      -5.52612333       1.72544367 snap1000
Ni     -51.84860786      -5.53804306       1.79833097 snap1000
Fe     -43.95188081      -5.53935960       1.73920631 snap1000
Cr     -36.24540763      -5.41710158       1.75428613 snap1000
Ni     -28.40863760      -5.51935447       1.74916745 snap1000
Ni     -20.59044846      -5.47490457       1.75176760 snap1000
Ni     -12.73851309      -5.54222567       1.79847934 snap1000
Fe      -4.89033493      -5.62549302       1.75698821 snap1000
Ni     -72.36101825      -7.13198176       1.72765390 snap1000
Ni     -64.49736808      -7.05760008       1.70825401 snap1000
Ni     -56.55858730      -7.12213080       1.76135371 snap1000
Ni     -48.73895695      -7.10981160       1.79296637 snap1000
Ni     -40.92698430      -7.07334394       1.73312967 snap1000
Ni     -33.07651256      -7.05884116       1.73139017 snap1000
Ni     -25.23871282      -7.07421637       1.77670066 snap1000
Ni     -17.47372552      -7.01789596       1.76058980 snap1000
Ni      -9.53409587      -7.13262010       1.74081997 snap1000
Ni      -1.57553190      -7.25817626       1.76426865 snap1000
Ni     -74.69910699      -4.12705825      -0.00889996 snap1000
Ni     -66.84394839      -3.92475208       0.04285004 snap1000
Cr     -58.90766419      -3.95223434      -0.00454767 snap1000
Ni     -51.06101123      -3.93485881       0.03222471 snap1000
Fe     -43.20087389      -3.95208638      -0.00018418 snap1000
Ni     -35.45047500      -3.91650025      -0.00076175 snap1000
Ni     -27.61949842      -3.92739215       0.04945727 snap1000
Cr     -19.81000877      -3.91080902       0.00935418 snap1000
Mo     -11.95898405      -3.93125756       0.05029785 snap1000
Ni      -4.05478187      -4.09522171      -0.04034797 snap1000
Ni     -71.60306810      -5.54693418       0.01694932 snap1000
Ni     -63.68380344      -5.45442403       0.02632666 snap1000
Ni     -55.75523090      -5.58318924       0.00167837 snap1000
Ni     -47.91002225      -5.50295737       0.00816532 snap1000
Fe     -40.11929221      -5.48171144      -0.00710996 snap1000
Ni     -32.31201879      -5.47652234       0.00842491 snap1000
Ni     -24.47346301      -5.49277580       0.00689934 snap1000
Ni     -16.70281607      -5.44510606       0.00127521 snap1000
Ni      -8.77454418      -5.58415258       0.01201168 snap1000
Mo      -1.00709291      -5.68258241      -0.03361835 snap1000
Ni     -76.19796601      -7.34054012       0.01596272 snap1000
Ni     -68.40871340      -7.08916916       0.02179780 snap1000
Ni     -60.45083447      -7.11563176      -0.00919106 snap1000
Ni     -52.65388297      -7.13566557       0.00777819 snap1000
Ni     -44.74110991      -7.11607845       0.00125131 snap1000
Ni     -37.03758020      -7.04009550       0.00289644 snap1000
Cr     -29.15933890      -7.08427044       0.00172809 snap1000
Ni     -21.36077335      -7.02520252      -0.02780377 snap1000
Ni     -13.49490124      -7.08729261       0.03139528 snap1000
Ni      -5.67215403      -7.18230639      -0.01599203 snap1000
Cr     -73.15449774      -4.81817021       1.75382051 snap1000
Cr     -65.27379058      -4.68908920       1.75945745 snap1000
Ni     -57.34454349      -4.75816084       1.71693206 snap1000
Ni     -49.48674474      -4.73119969       1.78587938 snap1000
Ni     -41.64223973      -4.71267825       1.75071378 snap1000
Ni     -33.87621996      -4.70824907       1.75469132 snap1000
Fe     -26.02853303      -4.71402249       1.75225604 snap1000
Ni     -18.27790392      -4.68078723       1.76118435 snap1000
Fe     -10.34595604      -4.79375189       1.78479532 snap1000
Ni      -2.49812410      -4.91686852       1.76650587 snap1000
Ni     -77.56566098      -6.58065386       1.76062246 snap1000
Ni     -69.98181877      -6.31700920       1.74875759 snap1000
Mo     -62.05401620      -6.30261082       1.74397584 snap1000
Ni     -54.18485230      -6.37674778       1.76728262 snap1000
Ni     -46.32442950      -6.31584246       1.73474763 snap1000
Ni     -38.56186487      -6.25058706       1.73639910 snap1000
Ni     -30.73381139      -6.27772359       1.72910894 snap1000
Ni     -22.90529735      -6.24943118       1.76838615 snap1000
Ni     -15.10752126      -6.27548250       1.79439798 snap1000
Cr      -7.20626590      -6.38637389       1.75107786 snap1000
Cr    -100.56027140      -2.88485959      -3.53162096 snap1000
Ni     -92.81638741      -3.07957843      -3.55055230 snap1000
Ni     -85.11248081      -3.07845027      -3.51447424 snap1000
Ni     -97.48440280      -1.42296662      -3.53884305 snap1000
Fe     -89.69537798      -1.54827698      -3.50994042 snap1000
Ni     -81.96408591      -1.43145785      -3.51606846 snap1000
Ni    -102.36031586      -0.16729706      -3.53183523 snap1000
Ni     -94.37982542       0.07589249      -3.52988422 snap1000
Ni     -86.60968526       0.02912029      -3.51383003 snap1000
Ni     -98.98179053      -2.18142710      -5.28018090 snap1000
Ni     -91.27103491      -2.29158251      -5.27845664 snap1000
Ni     -83.53836896      -2.25765531      -5.26165696 snap1000
Ni     -95.94641249      -0.68706092      -5.28196579 snap1000
Ni     -88.13791215      -0.74398862      -5.27399051 snap1000
Ni     -80.28931154      -0.65705517      -5.25188068 snap1000
Ni     -98.28326503       0.17982784      -5.29943611 snap1000
Ni     -90.45959890       0.04645269      -5.23856097 snap1000
Ni     -82.73565660       0.08198531      -5.25266144 snap1000
Ni     -95.15305828      -2.26014092      -3.58264909 snap1000
Ni     -87.39456184      -2.28228376      -3.51275238 snap1000
Cr     -79.74893280      -2.16489672      -3.52493175 snap1000
Ni     -99.78958719      -0.54108614      -3.50468388 snap1000
Ni     -92.03070966      -0.72647598      -3.53876045 snap1000
Ni     -84.32607149      -0.73384286      -3.50877090 snap1000
Cr     -96.73118356      -3.02848356      -5.27711839 snap1000
Ni     -88.95265189      -3.07407294      -5.30820143 snap1000
Ni     -81.12673628      -2.99730940      -5.27791513 snap1000
Ni    -101.14820309      -1.36299261      -5.20738167 snap1000
Cr     -93.57899493      -1.48146507      -5.26791834 snap1000
Cr     -85.85177537      -1.50517656      -5.27453496 snap1000
Mo     -77.27652633      -1.10471744      -5.28774814 snap1000
Ni     -69.18363179      -0.80133104      -5.28216645 snap1000
Ni     -61.25592187      -0.80917173      -5.25753793 snap1000
Ni     -53.42480062      -0.80398783      -5.28443906 snap1000
Ni     -45.51736958      -0.83788891      -5.26901237 snap1000
Cr     -37.83512974      -0.81813099      -5.22026364 snap1000
Ni     -29.95744425      -0.77300798      -5.25421610 snap1000
Ni     -22.14713440      -0.74980061      -5.28060400 snap1000
Ni     -14.28607896      -0.77396180      -5.24473485 snap1000
Ni      -6.40611856      -0.86825453      -5.27436704 snap1000
Ni     -73.92240798      -2.52419287      -5.26045496 snap1000
Ni     -66.05111302      -2.33682773      -5.25728486 snap1000
Ni     -58.11549366      -2.36410794      -5.31919592 snap1000
Cr     -50.25700557      -2.38836371      -5.28122664 snap1000
Ni     -42.44789456      -2.37378122      -5.27062725 snap1000
Ni     -34.66943998      -2.39025211      -5.27870853 snap1000
Ni     -26.83657895      -2.34723886      -5.31134900 snap1000
Ni     -19.04181103      -2.36384985      -5.26280579 snap1000
Ni     -11.15027952      -2.39043048      -5.21965308 snap1000
Mo      -3.27682172      -2.52589873      -5.28487604 snap1000
Ni     -78.74884450       0.13439894      -3.52135226 snap1000
Ni     -70.81199625      -0.02794743      -3.49726511 snap1000
Ni     -62.88227041      -0.01605924      -3.52040909 snap1000
Ni     -54.98260980      -0.03993105      -3.50623469 snap1000
Mo     -47.14265632      -0.03622358      -3.52328242 snap1000
Ni     -39.38247511      -0.00458957      -3.52043710 snap1000
Ni     -31.49689951       0.01694936      -3.52592407 snap1000
Ni     -23.68745867       0.04329504      -3.54626218 snap1000
Mo     -15.89256235       0.06302180      -3.51598452 snap1000
Ni      -8.00540773      -0.04292065      -3.51949706 snap1000
Ni     -75.42532556      -1.77032551      -3.51574639 snap1000
Ni     -67.59750391      -1.55899071      -3.52753746 snap1000
Ni     -59.69485776      -1.59292042      -3.52923467 snap1000
Ni     -51.85104247      -1.57942416      -3.54089944 snap1000
Ni     -43.97843649      -1.61941824      -3.51867869 snap1000
Ni     -36.24347140      -1.60552230      -3.53502140 snap1000
Ni     -28.41628589      -1.55104660      -3.55132681 snap1000
Fe     -20.60204195      -1.56172367      -3.54889478 snap1000
Cr     -12.73572348      -1.56788718      -3.51411846 snap1000
Ni      -4.82381531      -1.69992381      -3.50288147 snap1000
Ni     -72.39721044      -3.24158968      -3.53325944 snap1000
Ni     -64.47439490      -3.11125035      -3.55710087 snap1000
Ni     -56.54331862      -3.13464703      -3.52621146 snap1000
Ni     -48.67575335      -3.16905618      -3.55519642 snap1000
Ni     -40.90131146      -3.14760281      -3.52319328 snap1000
Ni     -33.11683403      -3.17455129      -3.52303520 snap1000
Ni     -25.24890452      -3.14524148      -3.55575120 snap1000
Ni     -17.47209318      -3.12977028      -3.51464731 snap1000
Ni      -9.58903912      -3.23455973      -3.51913989 snap1000
Ni      -1.67645411      -3.30630981      -3.49778268 snap1000
Ni     -74.71786724      -0.17699452      -5.24819755 snap1000
Ni     -66.84897868       0.03192991      -5.25684381 snap1000
Ni     -58.88153857      -0.02993649      -5.29079232 snap1000
Ni     -51.07909195      -0.02518794      -5.30988665 snap1000
Ni     -43.19999610      -0.03198559      -5.25243318 snap1000
Mo     -35.43924352       0.01595968      -5.27020139 snap1000
Ni     -27.62512782       0.03776174      -5.28990885 snap1000
Ni     -19.82342347       0.04642875      -5.26382292 snap1000
Ni     -11.93692399      -0.05268316      -5.24974604 snap1000
Ni      -4.07083643      -0.10710835      -5.27822432 snap1000
Ni     -71.59698999      -1.61286401      -5.24159468 snap1000
Ni     -63.66638894      -1.54470298      -5.21905113 snap1000
Ni     -55.77272543      -1.55743264      -5.29721258 snap1000
Ni     -47.91724923      -1.63187225      -5.29155641 snap1000
Ni     -40.14585715      -1.58819076      -5.25463005 snap1000
Ni     -32.32644457      -1.59497665      -5.26072338 snap1000
Ni     -24.46683393      -1.56643141      -5.30623733 snap1000
Ni     -16.68881445      -1.57122934      -5.24497331 snap1000
Ni      -8.79595637      -1.63948642      -5.25043753 snap1000
Ni      -0.98757864      -1.77920273      -5.27520649 snap1000
Ni     -76.22592965      -3.43421583      -5.28104057 snap1000
Ni     -68.39578334      -3.16659931      -5.29167733 snap1000
Ni     -60.47717106      -3.15549316      -5.29265918 snap1000
Ni     -52.58463847      -3.15345926      -5.27215062 snap1000
Ni     -44.75344877      -3.17865313      -5.29164725 snap1000
Ni     -37.03324323      -3.13916426      -5.27455028 snap1000
Ni     -29.22762412      -3.15048894      -5.27945317 snap1000
Ni     -21.36969086      -3.14865447      -5.27870597 snap1000
Ni     -13.55401965      -3.13516956      -5.21478038 snap1000
Ni      -5.64192047      -3.30630377      -5.28659077 snap1000
Cr     -73.14545361      -0.88739610      -3.52256399 snap1000
Cr     -65.28789422      -0.75529670      -3.52882615 snap1000
Fe     -57.34643926      -0.78552301      -3.52206969 snap1000
Ni     -49.50874234      -0.82434606      -3.55974435 snap1000
Cr     -41.70047126      -0.80088549      -3.51477559 snap1000
Ni     -33.85272918      -0.80275449      -3.51664607 snap1000
Mo     -26.04617100      -0.77563379      -3.52583666 snap1000
Ni     -18.28336841      -0.75263564      -3.52210768 snap1000
Ni     -10.37437966      -0.82892396      -3.50842245 snap1000
Ni      -2.45733851      -0.90997507      -3.52599573 snap1000
Ni     -77.60504697      -2.64495155      -3.53053808 snap1000
Mo     -69.97688788      -2.40777383      -3.52125486 snap1000
Cr     -62.04292059      -2.35355530      -3.53440857 snap1000
Ni     -54.16398753      -2.34857488      -3.51427560 snap1000
Ni     -46.32624879      -2.40227837      -3.52496450 snap1000
Ni     -38.58981495      -2.37826812      -3.53368162 snap1000
Ni     -30.78269190      -2.37547351      -3.54860014 snap1000
Ni     -22.93313736      -2.36137364      -3.54393783 snap1000
Cr     -15.12473679      -2.41072576      -3.52262506 snap1000
Mo      -7.19315645      -2.47486724      -3.51604633 snap1000
Mo    -100.85689885      -6.82762430      -1.79648562 snap1000
Ni     -92.79751672      -7.01876072      -1.72472743 snap1000
Ni     -85.07187816      -7.05979772      -1.75064544 snap1000
Ni     -97.49648403      -5.38690519      -1.76296773 snap1000
Ni     -89.71567999      -5.45885565      -1.69148022 snap1000
Ni     -81.95382506      -5.39582878      -1.72229245 snap1000
Ni    -102.30153640      -3.96119087      -1.79748871 snap1000
Ni     -94.35123215      -3.83949759      -1.75161458 snap1000
Ni     -86.62687637      -3.85683655      -1.73559187 snap1000
Ni     -98.99583259      -6.13948335      -3.53112790 snap1000
Mo     -91.24545477      -6.22675365      -3.51438523 snap1000
Ni     -83.53502057      -6.26197967      -3.52589596 snap1000
Ni     -95.93521292      -4.60834369      -3.57060202 snap1000
Mo     -88.17295340      -4.67761317      -3.51636120 snap1000
Ni     -80.26886533      -4.56406574      -3.52590843 snap1000
Ni     -98.26700471      -3.77314665      -3.54541943 snap1000
Fe     -90.50197138      -3.84181269      -3.51739217 snap1000
Mo     -82.71785367      -3.86108120      -3.51568291 snap1000
Mo     -95.16346615      -6.17585266      -1.74559062 snap1000
Ni     -87.37971344      -6.27283660      -1.72753264 snap1000
Ni     -79.62627747      -6.04698334      -1.69390742 snap1000
Ni     -99.74156903      -4.45925774      -1.75220043 snap1000
Ni     -92.03963840      -4.64088711      -1.71988848 snap1000
Ni     -84.32860502      -4.67453089      -1.75614374 snap1000
Cr     -96.73312297      -6.97178981      -3.55846484 snap1000
Ni     -88.91773702      -7.07811268      -3.51619800 snap1000
Mo     -81.14419243      -6.95209942      -3.49844539 snap1000
Ni    -101.08970064      -5.12837314      -3.51042279 snap1000
Ni     -93.59692031      -5.40386066      -3.54506167 snap1000
Ni     -85.83703581      -5.47489302      -3.51293727 snap1000
Mo     -77.35513262      -5.02889270      -3.49722934 snap1000
Ni     -69.19053788      -4.77023975      -3.55493511 snap1000
Ni     -61.28989179      -4.69808181      -3.52759223 snap1000
Ni     -53.39591490      -4.75828393      -3.52300878 snap1000
Mo     -45.53350049      -4.76352713      -3.51231227 snap1000
Ni     -37.80078394      -4.69856570      -3.53301235 snap1000
Ni     -29.98805105      -4.73658978      -3.55436620 snap1000
Cr     -22.12162505      -4.69314306      -3.53326828 snap1000
Ni     -14.34537999      -4.71209162      -3.54332418 snap1000
Ni      -6.42238633      -4.87256827      -3.51230798 snap1000
Ni     -73.88651895      -6.38963283      -3.53039804 snap1000
Ni     -66.08399028      -6.25812160      -3.57158407 snap1000
Ni     -58.10720346      -6.35646382      -3.52265566 snap1000
Cr     -50.30471543      -6.31151348      -3.51529620 snap1000
Ni     -42.41819421      -6.29733395      -3.51109495 snap1000
Ni     -34.62962480      -6.24679830      -3.52447701 snap1000
Ni     -26.82459188      -6.29015351      -3.55664112 snap1000
Ni     -19.05140037      -6.23051628      -3.51681633 snap1000
Ni     -11.12884375      -6.34274988      -3.54468942 snap1000
Ni      -3.31356389      -6.42786598      -3.46002743 snap1000
Ni     -78.80995943      -3.68408303      -1.75880378 snap1000
Ni     -70.82809168      -3.98932662      -1.77017524 snap1000
Ni     -62.86828484      -3.89313444      -1.81117528 snap1000
Mo     -54.98507407      -3.96110476      -1.75263495 snap1000
Ni     -47.13747716      -3.95536137      -1.74196613 snap1000
Ni     -39.36660306      -3.93001968      -1.75693885 snap1000
Ni     -31.57377766      -3.95023630      -1.76026383 snap1000
Ni     -23.67125726      -3.91875157      -1.75989243 snap1000
Ni     -15.90728075      -3.93807712      -1.79235891 snap1000
Ni      -8.00108998      -4.05798857      -1.76502435 snap1000
Ni     -75.39086423      -5.68238620      -1.75813223 snap1000
Ni     -67.62772280      -5.51202074      -1.75877825 snap1000
Ni     -59.67727196      -5.53595340      -1.73658789 snap1000
Ni     -51.83673513      -5.52130869      -1.79624533 snap1000
Ni     -43.94404531      -5.54259593      -1.73727717 snap1000
Ni     -36.21824564      -5.45082679      -1.75689524 snap1000
Ni     -28.41073323      -5.53053835      -1.75848179 snap1000
Ni     -20.59852521      -5.46598695      -1.75721365 snap1000
Mo     -12.75457193      -5.57164215      -1.81642461 snap1000
Cr      -4.89377887      -5.64172921      -1.75693617 snap1000
Ni     -72.38264123      -7.13620700      -1.73852148 snap1000
Ni     -64.48962114      -7.06971483      -1.71882755 snap1000
Ni     -56.55404503      -7.11296253      -1.76272458 snap1000
Ni     -48.72432576      -7.08980487      -1.79073526 snap1000
Ni     -40.91782898      -7.07631769      -1.73027771 snap1000
Ni     -33.07740603      -7.03975274      -1.72623967 snap1000
Ni     -25.25080194      -7.06116647      -1.78179665 snap1000
Ni     -17.49452428      -7.02251341      -1.75916525 snap1000
Ni      -9.57885964      -7.12338108      -1.74351101 snap1000
Ni      -1.64324876      -7.29552053      -1.76367679 snap1000
Ni     -74.70914140      -4.12742440      -3.52152162 snap1000
Ni     -66.85622197      -3.93115089      -3.57449246 snap1000
Mo     -58.88356721      -3.97276233      -3.52418070 snap1000
Ni     -51.04763954      -3.95430605      -3.54863890 snap1000
Ni     -43.17847047      -3.95872032      -3.50992813 snap1000
Ni     -35.45115101      -3.93848690      -3.52035757 snap1000
Ni     -27.61821946      -3.91537611      -3.57547742 snap1000
Ni     -19.83587958      -3.91590663      -3.52435572 snap1000
Ni     -11.95534308      -3.95487229      -3.54575317 snap1000
Ni      -4.07729407      -4.09531405      -3.47941233 snap1000
Ni     -71.60762391      -5.54962664      -3.54890133 snap1000
Ni     -63.72516114      -5.49947432      -3.56052975 snap1000
Ni     -55.78948903      -5.56387355      -3.52536935 snap1000
Ni     -47.94674142      -5.52382342      -3.52873475 snap1000
Ni     -40.12797861      -5.46935134      -3.51131569 snap1000
Ni     -32.31660100      -5.47009918      -3.52573424 snap1000
Ni     -24.42809859      -5.49060532      -3.52662512 snap1000
Ni     -16.71354584      -5.48215622      -3.52282754 snap1000
Ni      -8.77092904      -5.59907629      -3.53469606 snap1000
Mo      -0.97255714      -5.73146415      -3.48283096 snap1000
Ni     -76.15753060      -7.33903126      -3.54346581 snap1000
Ni     -68.38334282      -7.09887849      -3.55470800 snap1000
Ni     -60.44712166      -7.10926503      -3.52359164 snap1000
Ni     -52.62958576      -7.12249987      -3.52510774 snap1000
Ni     -44.71158361      -7.13177609      -3.51833812 snap1000
Ni     -37.01157995      -7.02629006      -3.52520648 snap1000
Ni     -29.17297153      -7.06384514      -3.52560064 snap1000
Ni     -21.35828330      -7.02945925      -3.49307612 snap1000
Ni     -13.52478511      -7.13008728      -3.55373569 snap1000
Ni      -5.66328056      -7.18301202      -3.50305930 snap1000
Cr     -73.11827859      -4.83068021      -1.76520868 snap1000
Mo     -65.26795431      -4.67919786      -1.77077316 snap1000
Ni     -57.34877250      -4.75883017      -1.72297546 snap1000
Ni     -49.47557528      -4.75018700      -1.78719695 snap1000
Cr     -41.65828931      -4.71407821      -1.74945501 snap1000
Cr     -33.89178459      -4.71414960      -1.75156263 snap1000
Mo     -26.06097313      -4.70454909      -1.76956150 snap1000
Ni     -18.27664486      -4.67201354      -1.76130159 snap1000
Ni     -10.35276463      -4.77931206      -1.77696986 snap1000
Ni      -2.49513139      -4.84716750      -1.76426278 snap1000
Ni     -77.50274939      -6.63869519      -1.76685354 snap1000
Mo     -70.00538658      -6.33544578      -1.76263140 snap1000
Mo     -62.08870011      -6.28950955      -1.75631314 snap1000
Fe     -54.18935825      -6.36854542      -1.76790844 snap1000
Ni     -46.31958947      -6.31023454      -1.73287852 snap1000
Ni     -38.56663029      -6.27651787      -1.74171328 snap1000
Ni     -30.72685088      -6.27010397      -1.72662444 snap1000
Cr     -22.92025099      -6.26551417      -1.76935683 snap1000
Ni     -15.13123283      -6.27499078      -1.79814592 snap1000
Ni      -7.21226745      -6.38427126      -1.75383239 snap1000
520
Lattice="0.0 0.0 -7.04 4e-16 -7.870959280799259 3.5200000000000014 -102.32247065039037 0.0 -6.3e-15" Properties=species:S:1:pos:R:3:frame_label:S:1 pbc="T T T"
Mo    -101.05713194      -2.80036681       0.06729228 snap2000
Cr     -92.84354875      -2.98388336      -0.01911828 snap2000
Mo     -85.00390529      -2.96206489       0.00248212 snap2000
Ni     -97.52365340      -1.38324125      -0.02016032 snap2000
Ni     -89.72087692      -1.44589282       0.03895319 snap2000
Cr     -81.93208532      -1.40546314       0.00071970 snap2000
Ni    -102.45267396      -0.27691297       0.01035584 snap2000
Ni     -94.38812605       0.13684061      -0.02174094 snap2000
Ni     -86.58494385       0.16174825       0.01469789 snap2000
Ni     -99.06087678      -2.14778553      -1.73295355 snap2000
Ni     -91.29072696      -2.24254913      -1.75327880 snap2000
Ni     -83.43546915      -2.15243704      -1.76062176 snap2000
Ni     -95.98662088      -0.64491621      -1.75880608 snap2000
Fe     -88.14648636      -0.64475604      -1.75646448 snap2000
Ni     -80.22573269      -0.55429179      -1.78471047 snap2000
Cr     -98.25137538       0.22001432      -1.75640672 snap2000
Mo     -90.46215158       0.12862282      -1.76196965 snap2000
Ni     -82.68504298       0.19156540      -1.75052577 snap2000
Ni     -95.17239607      -2.22567726      -0.02530015 snap2000
Ni     -87.40078277      -2.17857871       0.01477037 snap2000
Ni     -79.63441715      -1.99959301       0.00098376 snap2000
Ni     -99.83472189      -0.49788747      -0.06048668 snap2000
Ni     -92.04697497      -0.67052673       0.00852019 snap2000
Ni     -84.24006442      -0.55853428       0.00093187 snap2000
Ni     -96.76900352      -2.99742142      -1.74877435 snap2000
Ni     -88.97271366      -2.97493226      -1.73563468 snap2000
Ni     -81.12344982      -2.89314786      -1.76442358 snap2000
Ni    -101.26731782      -1.33369263      -1.76522027 snap2000
Ni     -93.59531396      -1.43938652      -1.75307703 snap2000
Ni     -85.81435119      -1.36761089      -1.75457342 snap2000
Mo     -77.27128300      -1.10551616      -1.71637807 snap2000
Ni     -69.16169643      -0.88009771      -1.77790677 snap2000
Ni     -61.27280927      -0.84443488      -1.79631706 snap2000
Ni     -53.39079098      -0.82417546      -1.75801929 snap2000
Ni     -45.51484304      -0.83916535      -1.76781745 snap2000
Ni     -37.74738377      -0.78019538      -1.77063304 snap2000
Ni     -30.02020803      -0.74280728      -1.75389282 snap2000
Ni     -22.16550326      -0.76255169      -1.75662876 snap2000
Ni     -14.36166196      -0.80966096      -1.80406792 snap2000
Ni      -6.47484263      -0.91139400      -1.72751511 snap2000
Ni     -73.87709076      -2.60207355      -1.73327392 snap2000
Ni     -66.04394140      -2.43807131      -1.78205257 snap2000
Ni     -58.10146348      -2.36149565      -1.75909268 snap2000
Mo     -50.24875485      -2.36684871      -1.76121974 snap2000
Ni     -42.45127046      -2.40986322      -1.75530365 snap2000
Ni     -34.61984770      -2.34092428      -1.79337307 snap2000
Ni     -26.85008549      -2.31913351      -1.72625308 snap2000
Cr     -19.01132275      -2.38397377      -1.81813363 snap2000
Ni     -11.22069437      -2.48239561      -1.75394059 snap2000
Ni      -3.33892564      -2.54994389      -1.75078493 snap2000
Ni     -78.65443663       0.28875185      -0.00219122 snap2000
Ni     -70.71519635      -0.11848358      -0.00361998 snap2000
Ni     -62.88840432      -0.02990040      -0.00354088 snap2000
Ni     -54.97209280      -0.03660712      -0.00489689 snap2000
Mo     -47.07491748      -0.04604208       0.00332461 snap2000
Ni     -39.28390900      -0.02039078       0.00146884 snap2000
Ni     -31.56010233       0.00448012      -0.00119132 snap2000
Ni     -23.71152999      -0.00737280      -0.01986908 snap2000
Ni     -15.88685336       0.00060251      -0.00648813 snap2000
Ni      -8.01898625      -0.09256713      -0.03026035 snap2000
Ni     -75.36752839      -1.81424877      -0.00381475 snap2000
Ni     -67.60450426      -1.64006992      -0.00214151 snap2000
Ni     -59.68732287      -1.58374030      -0.00279924 snap2000
Ni     -51.84051324      -1.58843168       0.03336579 snap2000
Ni     -44.02109435      -1.62060095       0.00192995 snap2000
Ni     -36.19455700      -1.54101009       0.00174100 snap2000
Ni     -28.44353043      -1.52728716       0.03261142 snap2000
Fe     -20.61316414      -1.56280500       0.02758752 snap2000
Ni     -12.78863088      -1.61679597       0.00710543 snap2000
Fe      -4.88952989      -1.72413388       0.02695200 snap2000
Ni     -72.32586503      -3.33831307      -0.00287191 snap2000
Ni     -64.49663287      -3.20645820      -0.00121528 snap2000
Ni     -56.54964810      -3.15418975       0.00531452 snap2000
Ni     -48.67437485      -3.19479763       0.03317824 snap2000
Ni     -40.84305705      -3.20183517      -0.00134353 snap2000
Ni     -33.05456282      -3.13267314       0.00340716 snap2000
Ni     -25.27825304      -3.11900453       0.01194444 snap2000
Ni     -17.49977808      -3.18423377      -0.00343786 snap2000
Ni      -9.61884222      -3.24700741       0.01957120 snap2000
Ni      -1.68792853      -3.31094460      -0.00433674 snap2000
Ni     -74.59767528      -0.25187406      -1.75319378 snap2000
Ni     -66.85868878      -0.05460900      -1.77253819 snap2000
Ni     -58.88745693      -0.05142109      -1.76576166 snap2000
Ni     -51.07217617      -0.00368827      -1.72754296 snap2000
Ni     -43.22214717       0.00929331      -1.76096966 snap2000
Ni     -35.42480319      -0.00933405      -1.78372527 snap2000
Ni     -27.68354870       0.02204878      -1.73710160 snap2000
Ni     -19.82471340      -0.03695139      -1.77225433 snap2000
Ni     -12.03274454      -0.03722033      -1.76491628 snap2000
Mo      -4.06875492      -0.16034529      -1.75916897 snap2000
Ni     -71.52769711      -1.70848798      -1.75560126 snap2000
Ni     -63.67743331      -1.60724714      -1.82191980 snap2000
Ni     -55.75777819      -1.56834339      -1.75288861 snap2000
Ni     -47.87739882      -1.64834471      -1.75626724 snap2000
Ni     -40.04951906      -1.61278234      -1.75537441 snap2000
Cr     -32.28748461      -1.57980949      -1.77497915 snap2000
Ni     -24.47001452      -1.58064782      -1.73566613 snap2000
Ni     -16.70536083      -1.58785431      -1.81208886 snap2000
Ni      -8.82379890      -1.70213573      -1.72771977 snap2000
Cr      -1.12292532      -1.80633643      -1.77946923 snap2000
Ni     -76.21495273      -3.55455808      -1.78386700 snap2000
Ni     -68.35887553      -3.25160792      -1.79000610 snap2000
Ni     -60.52484295      -3.18364962      -1.79428563 snap2000
Ni     -52.59952582      -3.16426028      -1.76732807 snap2000
Ni     -44.79121664      -3.21042310      -1.75974642 snap2000
Ni     -37.00274198      -3.13611050      -1.78073439 snap2000
Mo     -29.21720676      -3.10561959      -1.75459915 snap2000
Mo     -21.37262124      -3.15402152      -1.77721649 snap2000
Ni     -13.56900839      -3.16350206      -1.77977871 snap2000
Ni      -5.67605522      -3.28512414      -1.72370328 snap2000
Cr     -73.05627325      -0.98036171      -0.00327101 snap2000
Mo     -65.24693396      -0.82298152      -0.00291319 snap2000
Cr     -57.31378160      -0.81732401      -0.00451824 snap2000
Ni     -49.49151946      -0.81299218       0.03569881 snap2000
Mo     -41.65053387      -0.81185054      -0.00271027 snap2000
Ni     -33.85576368      -0.83366853      -0.01030504 snap2000
Ni     -26.07482670      -0.77212581       0.00267406 snap2000
Mo     -18.23243084      -0.77433181       0.01540982 snap2000
Mo     -10.42336365      -0.82743534      -0.01660030 snap2000
Ni      -2.51760713      -0.97098759       0.02860443 snap2000
Ni     -77.48560513      -2.70835964      -0.00250664 snap2000
Mo     -69.94709131      -2.49884082      -0.00456720 snap2000
Mo     -62.12302062      -2.38860649      -0.00260629 snap2000
Ni     -54.15982413      -2.36426527       0.00664806 snap2000
Ni     -46.33439139      -2.45764191       0.00323162 snap2000
Ni     -38.50589257      -2.38391718       0.00331770 snap2000
Ni     -30.76893237      -2.32558482       0.02475882 snap2000
Ni     -22.93296802      -2.35552219       0.03249503 snap2000
Mo     -15.15301529      -2.36844982       0.00229295 snap2000
Cr      -7.26139844      -2.48488948       0.01210466 snap2000
Mo    -101.03800508      -6.78313572       1.76700706 snap2000
Ni     -92.81264928      -6.91105050       1.76758869 snap2000
Cr     -85.03491900      -6.91071031       1.75015077 snap2000
Ni     -97.54047621      -5.30768962       1.76684207 snap2000
Ni     -89.72305760      -5.33791178       1.73640198 snap2000
Ni     -81.90235979      -5.26079920       1.75586949 snap2000
Ni    -102.46247453      -4.17716045       1.77772746 snap2000
Ni     -94.37091950      -3.73472189       1.76204640 snap2000
Ni     -86.62188942      -3.79227313       1.73082459 snap2000
Ni     -99.01328497      -6.06752509       0.01120228 snap2000
Ni     -91.27148782      -6.12496903       0.00629788 snap2000
Ni     -83.48801767      -6.10629004       0.00069323 snap2000
Ni     -95.99661165      -4.53302448      -0.02887723 snap2000
Fe     -88.18558247      -4.56933305      -0.01489092 snap2000
Ni     -80.27212572      -4.40746824      -0.00151310 snap2000
Cr     -98.28376618      -3.71196963       0.01318133 snap2000
Ni     -90.54392404      -3.77960105       0.01837149 snap2000
Ni     -82.64692854      -3.73547143      -0.00063060 snap2000
Mo     -95.20093690      -6.10542812       1.76467079 snap2000
Ni     -87.37428164      -6.18110031       1.74128044 snap2000
Ni     -79.54422775      -5.95012612       1.74106816 snap2000
Ni     -99.82186724      -4.42818885       1.73901027 snap2000
Cr     -92.06319459      -4.58717342       1.75635639 snap2000
Ni     -84.24327562      -4.58031429       1.75576894 snap2000
Ni     -96.76231078      -6.89630073      -0.00526739 snap2000
Ni     -88.90730930      -6.95489024      -0.03361677 snap2000
Mo     -81.08793651      -6.84890190      -0.00042753 snap2000
Ni    -101.16681811      -5.17860418      -0.00484926 snap2000
Ni     -93.60719725      -5.30323099       0.01080536 snap2000
Ni     -85.82176576      -5.39309895       0.00318859 snap2000
Mo     -77.56342234      -5.06596675      -0.00399658 snap2000
Ni     -69.14371234      -4.86432256      -0.00300720 snap2000
Ni     -61.31626566      -4.75606851      -0.00198790 snap2000
Ni     -53.35821141      -4.78332401      -0.01141680 snap2000
Ni     -45.53036279      -4.75444705      -0.00966660 snap2000
Fe     -37.80326095      -4.72890024       0.00379607 snap2000
Ni     -30.00636313      -4.70781883       0.02521114 snap2000
Ni     -22.15536417      -4.72954383       0.05574685 snap2000
Ni     -14.35114261      -4.75828164       0.03501395 snap2000
Ni      -6.45897299      -4.83740550       0.02718753 snap2000
Ni     -73.79864788      -6.50701133      -0.00308256 snap2000
Ni     -66.06138496      -6.31326619      -0.00213069 snap2000
Cr     -58.10035651      -6.42431246       0.00060617 snap2000
Mo     -50.27429801      -6.30187691      -0.00085296 snap2000
Fe     -42.41935116      -6.26733327      -0.00346544 snap2000
Fe     -34.62452288      -6.31311168       0.01321117 snap2000
Ni     -26.90727319      -6.29309470       0.00552358 snap2000
Fe     -19.05437628      -6.28924207       0.01819406 snap2000
Ni     -11.20685301      -6.31200256       0.02723711 snap2000
Ni      -3.37560037      -6.47608791      -0.04082578 snap2000
Ni     -78.79252411      -3.56858656       1.76695742 snap2000
Ni     -70.70549568      -4.10188355       1.75887345 snap2000
Ni     -62.93325108      -3.95842511       1.79455380 snap2000
Mo     -54.95709014      -3.97743197       1.75594024 snap2000
Cr     -47.08750329      -3.97388982       1.76475614 snap2000
Fe     -39.31009135      -3.97629442       1.77234570 snap2000
Ni     -31.50888434      -3.91156007       1.76224838 snap2000
Ni     -23.70175209      -3.93114503       1.75303846 snap2000
Ni     -15.93443247      -3.96451059       1.75128232 snap2000
Ni      -8.05041760      -4.03994046       1.72934416 snap2000
Cr     -75.25618459      -5.78628916       1.75298824 snap2000
Ni     -67.59940213      -5.58973683       1.76321496 snap2000
Ni     -59.68883181      -5.59391746       1.75398879 snap2000
Ni     -51.83751991      -5.53448325       1.79411458 snap2000
Ni     -43.96939059      -5.51090099       1.76299807 snap2000
Ni     -36.22209950      -5.50765372       1.76274595 snap2000
Ni     -28.47556417      -5.49086955       1.76723050 snap2000
Ni     -20.60843560      -5.52430430       1.75138530 snap2000
Cr     -12.77532629      -5.53788357       1.75979890 snap2000
Ni      -4.91826127      -5.64353629       1.75607237 snap2000
Ni     -72.25539663      -7.25193788       1.73714580 snap2000
Ni     -64.51092976      -7.09519166       1.72224000 snap2000
Ni     -56.55163207      -7.13979909       1.75771163 snap2000
Ni     -48.71460852      -7.10833474       1.79604050 snap2000
Ni     -40.84323352      -7.07375432       1.76166818 snap2000
Ni     -33.06010446      -7.11110367       1.73833244 snap2000
Ni     -25.27009808      -7.09719822       1.78994716 snap2000
Ni     -17.47667300      -7.08886205       1.69299113 snap2000
Ni      -9.59437354      -7.11655457       1.76287261 snap2000
Ni      -1.67812694      -7.29787009       1.75671651 snap2000
Ni     -74.71302781      -4.22940722      -0.00318945 snap2000
Ni     -66.82370433      -3.99399320      -0.00030992 snap2000
Mo     -58.92748442      -3.96575472       0.00020568 snap2000
Ni     -51.04300613      -3.93133626       0.02977937 snap2000
Ni     -43.21217259      -3.96289825      -0.01011190 snap2000
Mo     -35.41973937      -3.91534161      -0.00592557 snap2000
Ni     -27.68888253      -3.90307438       0.03307130 snap2000
Ni     -19.82150208      -3.90983317       0.01657385 snap2000
Ni     -12.00289056      -3.95507235       0.03583283 snap2000
Ni      -4.08681245      -4.08786309       0.01671578 snap2000
Cr     -71.46730527      -5.65581931      -0.00250366 snap2000
Ni     -63.72728462      -5.50671135      -0.00008521 snap2000
Ni     -55.75659719      -5.59493721      -0.00697092 snap2000
Ni     -47.87655545      -5.49717783       0.00498069 snap2000
Ni     -40.08607688      -5.53437917      -0.00221160 snap2000
Ni     -32.31653339      -5.49790740       0.00055868 snap2000
Ni     -24.49487786      -5.53580988       0.02564302 snap2000
Cr     -16.67201590      -5.50281649       0.01193502 snap2000
Ni      -8.84668185      -5.58117609       0.02949869 snap2000
Mo      -1.06204793      -5.74100850      -0.04838425 snap2000
Ni     -76.06698387      -7.37556806      -0.00215046 snap2000
Ni     -68.40277252      -7.18018145      -0.00343798 snap2000
Ni     -60.45995638      -7.13967934      -0.00374239 snap2000
Ni     -52.64357995      -7.12479693      -0.00836782 snap2000
Ni     -44.73236876      -7.08218263      -0.00986719 snap2000
Ni     -36.96960774      -7.05952541       0.00546737 snap2000
Ni     -29.22794812      -7.06584662      -0.00156484 snap2000
Ni     -21.37993312      -7.08574876       0.03775976 snap2000
Ni     -13.55202870      -7.12232441       0.02270009 snap2000
Ni      -5.69936191      -7.23208628       0.00435476 snap2000
Ni     -73.04842365      -4.92948272       1.72677335 snap2000
Cr     -65.29287281      -4.76845861       1.74450077 snap2000
Ni     -57.32783536      -4.80518855       1.74292554 snap2000
Ni     -49.45999973      -4.72783911       1.78766793 snap2000
Fe     -41.63861469      -4.73701263       1.76140642 snap2000
Ni     -33.82915713      -4.69867714       1.76802516 snap2000
Mo     -26.08508080      -4.71569595       1.76096781 snap2000
Ni     -18.26540495      -4.73621633       1.71884977 snap2000
Ni     -10.44536674      -4.77077945       1.75257211 snap2000
Ni      -2.55604241      -4.90935159       1.77131574 snap2000
Ni     -77.36232659      -6.60240919       1.76353345 snap2000
Ni     -69.93471308      -6.43271076       1.74638540 snap2000
Mo     -62.09815302      -6.33970908       1.75237176 snap2000
Ni     -54.17799464      -6.36953467       1.76277642 snap2000
Ni     -46.30724907      -6.29337951       1.76156184 snap2000
Ni     -38.53123011      -6.30450854       1.76698025 snap2000
Ni     -30.77836619      -6.28316299       1.75046624 snap2000
Cr     -22.94088364      -6.30383218       1.76548954 snap2000
Ni     -15.11725686      -6.32305598       1.72531744 snap2000
Cr      -7.23114399      -6.39886657       1.76088069 snap2000
Mo    -100.94157383      -2.80195231      -3.57530623 snap2000
Cr     -92.85861695      -2.97792582      -3.48966223 snap2000
Mo     -85.04557451      -2.98787481      -3.52098324 snap2000
Ni     -97.53849785      -1.38682671      -3.48837243 snap2000
Ni     -89.71173313      -1.45983208      -3.55372019 snap2000
Ni     -81.90750387      -1.35406747      -3.52107852 snap2000
Ni    -102.45514875      -0.26025462      -3.52571592 snap2000
Ni     -94.38545671       0.13811412      -3.48953814 snap2000
Ni     -86.58112750       0.15159138      -3.53072593 snap2000
Ni     -99.02168834      -2.14415168      -5.30440255 snap2000
Ni     -91.31591393      -2.25613159      -5.27978369 snap2000
Ni     -83.43671285      -2.15018636      -5.27918270 snap2000
Mo     -95.95733704      -0.63447924      -5.27198068 snap2000
Cr     -88.14804718      -0.65264262      -5.27820378 snap2000
Ni     -80.22516686      -0.55301805      -5.25574471 snap2000
Ni     -98.36524950       0.23489853      -5.27817300 snap2000
Ni     -90.46607344       0.12005588      -5.26945990 snap2000
Ni     -82.68242812       0.19274835      -5.28935345 snap2000
Ni     -95.16974750      -2.22212755      -3.48292514 snap2000
Ni     -87.39527525      -2.17709666      -3.52937253 snap2000
Cr     -79.70069068      -2.07551911      -3.52176922 snap2000
Ni     -99.82819638      -0.48069153      -3.44963303 snap2000
Ni     -92.05015956      -0.67593534      -3.52070559 snap2000
Ni     -84.25451655      -0.56225115      -3.51955986 snap2000
Ni     -96.73326336      -3.00723131      -5.27549868 snap2000
Ni     -88.95841449      -2.98691079      -5.29924688 snap2000
Ni     -81.12595158      -2.89461488      -5.27784564 snap2000
Ni    -101.14597992      -1.18865000      -5.26865578 snap2000
Ni     -93.60132539      -1.46082637      -5.27720196 snap2000
Ni     -85.82754804      -1.36600439      -5.28217683 snap2000
Mo     -77.26906882      -1.10749988      -5.32845992 snap2000
Ni     -69.16171875      -0.87625458      -5.26940704 snap2000
Ni     -61.27179179      -0.83992961      -5.24954171 snap2000
Fe     -53.41803667      -0.79496533      -5.28552840 snap2000
Ni     -45.52387325      -0.84210040      -5.27201615 snap2000
Fe     -37.74007082      -0.77520082      -5.26197017 snap2000
Ni     -30.00241526      -0.76538803      -5.28483908 snap2000
Ni     -22.16033498      -0.79787179      -5.27756492 snap2000
Fe     -14.35154494      -0.80446770      -5.23403217 snap2000
Ni      -6.44874394      -0.91202361      -5.31032702 snap2000
Ni     -73.87895261      -2.60177305      -5.31281781 snap2000
Ni     -66.04292986      -2.43566111      -5.26453762 snap2000
Ni     -58.11037775      -2.35767235      -5.28499068 snap2000
Cr     -50.26569095      -2.37735067      -5.28146453 snap2000
Ni     -42.44836567      -2.40859859      -5.28426208 snap2000
Cr     -34.63008697      -2.32567518      -5.23381390 snap2000
Ni     -26.88296843      -2.31922468      -5.30791421 snap2000
Ni     -19.04137177      -2.37057361      -5.26327551 snap2000
Cr     -11.22571233      -2.46614984      -5.28025533 snap2000
Fe      -3.33155440      -2.52868819      -5.30124025 snap2000
Ni     -78.61836470       0.19865205      -3.52125216 snap2000
Cr     -70.71953383      -0.14068450      -3.52273759 snap2000
Ni     -62.89934786      -0.05393060      -3.52162504 snap2000
Ni     -54.97510414      -0.03315532      -3.52724901 snap2000
Mo     -47.11177629      -0.02965709      -3.52390533 snap2000
Ni     -39.27135133       0.00130329      -3.51462337 snap2000
Ni     -31.52749765       0.00344317      -3.51866924 snap2000
Ni     -23.70312960      -0.00475950      -3.49960278 snap2000
Ni     -15.91431714      -0.00415173      -3.51879028 snap2000
Ni      -8.03601495      -0.07861778      -3.48655648 snap2000
Ni     -75.34426215      -1.83531573      -3.52257204 snap2000
Ni     -67.59462503      -1.65662929      -3.52512122 snap2000
Ni     -59.70262902      -1.60249472      -3.52196635 snap2000
Ni     -51.82880482      -1.57822124      -3.55618563 snap2000
Ni     -44.01051782      -1.62157762      -3.52077843 snap2000
Fe     -36.21593345      -1.55236873      -3.51464176 snap2000
Ni     -28.46416388      -1.53312218      -3.55405402 snap2000
Ni     -20.59949829      -1.56917723      -3.53537040 snap2000
Ni     -12.78686142      -1.63763639      -3.52921379 snap2000
Ni      -4.86811682      -1.72197646      -3.55573943 snap2000
Mo     -72.31983857      -3.33075600      -3.52319442 snap2000
Fe     -64.50584221      -3.19307676      -3.52493646 snap2000
Ni     -56.53824941      -3.15399471      -3.52942282 snap2000
Ni     -48.65974961      -3.18249580      -3.55392859 snap2000
Ni     -40.86806590      -3.19655742      -3.51861375 snap2000
Ni     -33.08265710      -3.14512471      -3.51838604 snap2000
Ni     -25.26460231      -3.12866254      -3.52916985 snap2000
Ni     -17.48466637      -3.15475440      -3.52384640 snap2000
Ni      -9.63273200      -3.25612159      -3.53667475 snap2000
Cr      -1.72802549      -3.30760815      -3.50912902 snap2000
Ni     -74.59875303      -0.25141408      -5.29290202 snap2000
Ni     -66.85570175      -0.05220034      -5.27404103 snap2000
Ni     -58.88429878      -0.04865985      -5.27855431 snap2000
Ni     -51.06043462      -0.01451532      -5.30983945 snap2000
Ni     -43.22577602       0.01026049      -5.27661107 snap2000
Ni     -35.41546765      -0.01748906      -5.25382488 snap2000
Ni     -27.67671564       0.03664235      -5.30237176 snap2000
Ni     -19.84781572       0.01069723      -5.26359848 snap2000
Ni     -12.01453544      -0.06463256      -5.27587505 snap2000
Cr      -4.13575572      -0.13579372      -5.28223682 snap2000
Ni     -71.52721821      -1.70786570      -5.29081975 snap2000
Ni     -63.67323670      -1.60494422      -5.22330259 snap2000
Ni     -55.76228553      -1.56998821      -5.29317720 snap2000
Ni     -47.91019435      -1.64761406      -5.28557086 snap2000
Ni     -40.05609121      -1.60979859      -5.28103979 snap2000
Fe     -32.33286767      -1.57493099      -5.26398286 snap2000
Fe     -24.49640401      -1.56550671      -5.30649827 snap2000
Ni     -16.69685332      -1.58342309      -5.22861694 snap2000
Ni      -8.81362393      -1.64507763      -5.30570340 snap2000
Ni      -0.98804341      -1.87881177      -5.24974651 snap2000
Ni     -76.21677235      -3.55797578      -5.26149799 snap2000
Ni     -68.36511380      -3.24720807      -5.25692876 snap2000
Ni     -60.52911055      -3.18256026      -5.24984054 snap2000
Ni     -52.57476137      -3.15899796      -5.27345131 snap2000
Ni     -44.79028173      -3.20577008      -5.27908297 snap2000
Ni     -36.98051593      -3.12728489      -5.25697623 snap2000
Cr     -29.21888261      -3.11928122      -5.28629678 snap2000
Ni     -21.36014254      -3.13989893      -5.27019137 snap2000
Ni     -13.55990038      -3.18614938      -5.26170944 snap2000
Ni      -5.68070184      -3.28197724      -5.31734175 snap2000
Ni     -73.05380828      -0.95027152      -3.52297453 snap2000
Ni     -65.28994694      -0.82215128      -3.52320239 snap2000
Ni     -57.32272363      -0.80589181      -3.52233456 snap2000
Ni     -49.48611479      -0.82358022      -3.56017531 snap2000
Mo     -41.64095955      -0.81041582      -3.51470115 snap2000
Ni     -33.84612022      -0.79389782      -3.50904208 snap2000
Mo     -26.08288430      -0.77134189      -3.51474847 snap2000
Ni     -18.28503759      -0.79481005      -3.52533006 snap2000
Mo     -10.41392872      -0.85297017      -3.50187764 snap2000
Ni      -2.51801277      -0.97549401      -3.54361847 snap2000
Ni     -77.53591178      -2.59718428      -3.52219284 snap2000
Ni     -69.93377592      -2.46308828      -3.52213985 snap2000
Cr     -62.05540000      -2.38230781      -3.52324842 snap2000
Ni     -54.15651583      -2.35668908      -3.52976764 snap2000
Ni     -46.33130812      -2.44708475      -3.52328035 snap2000
Ni     -38.53736330      -2.37307407      -3.52220400 snap2000
Ni     -30.78384065      -2.33912109      -3.53970753 snap2000
Ni     -22.95643526      -2.34137780      -3.55007690 snap2000
Ni     -15.13387136      -2.40258738      -3.52801286 snap2000
Mo      -7.24303965      -2.47870020      -3.52550078 snap2000
Mo    -100.89444490      -6.74049002      -1.76005536 snap2000
Mo     -92.84046259      -6.92674820      -1.75940575 snap2000
Cr     -85.02788338      -6.91116408      -1.74852039 snap2000
Cr     -97.53027484      -5.32123480      -1.77494306 snap2000
Ni     -89.73777778      -5.36016804      -1.73206334 snap2000
Ni     -81.90235732      -5.25912111      -1.75774859 snap2000
Ni    -102.40645745      -4.01437416      -1.77938733 snap2000
Ni     -94.37726693      -3.76560123      -1.75422894 snap2000
Ni     -86.61588238      -3.78404023      -1.72795436 snap2000
Ni     -99.02356396      -6.09224768      -3.53756109 snap2000
Ni     -91.24945667      -6.11389368      -3.51946980 snap2000
Ni     -83.48393223      -6.10249748      -3.52058023 snap2000
Ni     -95.98208182      -4.53015402      -3.48644991 snap2000
Mo     -88.17657458      -4.57176559      -3.50666824 snap2000
Ni     -80.26893005      -4.42991462      -3.52168819 snap2000
Ni     -98.33574218      -3.71727822      -3.51113980 snap2000
Ni     -90.55659713      -3.77375648      -3.53371579 snap2000
Ni     -82.64966634      -3.73855378      -3.52118101 snap2000
Ni     -95.20148275      -6.09553759      -1.75711387 snap2000
Ni     -87.34772752      -6.18079626      -1.73894362 snap2000
Ni     -79.54376323      -5.94957025      -1.74405741 snap2000
Ni     -99.79185146      -4.41857730      -1.72975997 snap2000
Ni     -92.05642278      -4.53176993      -1.75313087 snap2000
Ni     -84.24517376      -4.57970297      -1.75535009 snap2000
Ni     -96.75592566      -6.90052302      -3.50874992 snap2000
Ni     -88.91143129      -6.96224436      -3.47947213 snap2000
Mo     -81.08871196      -6.84853196      -3.52073512 snap2000
Ni    -101.13912130      -5.15650526      -3.50862369 snap2000
Ni     -93.60102160      -5.29949932      -3.52465720 snap2000
Ni     -85.81265929      -5.39356940      -3.52159625 snap2000
Mo     -77.58970714      -5.01936618      -3.52077023 snap2000
Ni     -69.14186437      -4.85976748      -3.52433492 snap2000
Ni     -61.33442811      -4.74029383      -3.52290843 snap2000
Ni     -53.38388404      -4.76995721      -3.51034413 snap2000
Ni     -45.54295207      -4.75473321      -3.50747602 snap2000
Ni     -37.76180536      -4.73055544      -3.52244206 snap2000
Ni     -29.98426915      -4.69804088      -3.54496517 snap2000
Ni     -22.15000631      -4.72524339      -3.57741862 snap2000
Ni     -14.33649967      -4.75153823      -3.55880212 snap2000
Ni      -6.44877237      -4.85092617      -3.54960552 snap2000
Ni     -73.78002110      -6.51226823      -3.52310875 snap2000
Ni     -66.07214456      -6.33309749      -3.52450791 snap2000
Ni     -58.10376648      -6.40185012      -3.52129597 snap2000
Cr     -50.27749769      -6.31166055      -3.52155944 snap2000
Ni     -42.41730783      -6.27589830      -3.50975762 snap2000
Mo     -34.62026559      -6.31733396      -3.53026037 snap2000
Ni     -26.89744865      -6.30631077      -3.52690542 snap2000
Ni     -19.07164915      -6.29495140      -3.54013182 snap2000
Ni     -11.20764886      -6.30660233      -3.54880470 snap2000
Ni      -3.36965241      -6.46506589      -3.47550447 snap2000
Ni     -78.79190394      -3.56805311      -1.77040085 snap2000
Ni     -70.70316410      -4.10243451      -1.76570503 snap2000
Ni     -62.93382187      -3.95621435      -1.80088966 snap2000
Mo     -54.97752774      -3.96878055      -1.75831812 snap2000
Cr     -47.10711185      -3.97028690      -1.76547154 snap2000
Ni     -39.30834162      -3.97090716      -1.77258530 snap2000
Ni     -31.54631508      -3.91671440      -1.75961140 snap2000
Ni     -23.73062080      -3.92365452      -1.74945270 snap2000
Ni     -15.91719285      -3.97329878      -1.75030252 snap2000
Ni      -8.04765431      -4.02739809      -1.72766488 snap2000
Cr     -75.25736771      -5.78563958      -1.75905602 snap2000
Ni     -67.59952424      -5.59129932      -1.77129326 snap2000
Ni     -59.69385021      -5.59296523      -1.75795316 snap2000
Ni     -51.82910880      -5.52294397      -1.79404614 snap2000
Cr     -43.96579011      -5.50275304      -1.76523846 snap2000
Ni     -36.22177627      -5.52219883      -1.76452031 snap2000
Ni     -28.46919914      -5.50837151      -1.76588517 snap2000
Ni     -20.56558503      -5.51913780      -1.75518800 snap2000
Mo     -12.78146436      -5.53852471      -1.76135240 snap2000
Ni      -4.89183339      -5.64658378      -1.75287115 snap2000
Ni     -72.25666199      -7.25221291      -1.74350909 snap2000
Ni     -64.51103531      -7.09205258      -1.72801632 snap2000
Ni     -56.53828971      -7.13852361      -1.76351424 snap2000
Ni     -48.69792024      -7.08387354      -1.79690574 snap2000
Ni     -40.84976056      -7.08049384      -1.75740053 snap2000
Ni     -33.07067610      -7.10171907      -1.73661712 snap2000
Ni     -25.29274882      -7.09527419      -1.79108778 snap2000
Ni     -17.48867333      -7.07457012      -1.69002101 snap2000
Ni      -9.66032650      -7.10164268      -1.76097725 snap2000
Ni      -1.74999377      -7.35243635      -1.75070284 snap2000
Ni     -74.69637876      -4.24457889      -3.52286638 snap2000
Ni     -66.79855184      -4.02168784      -3.52696262 snap2000
Mo     -58.89757939      -4.00117055      -3.52323739 snap2000
Ni     -51.03218781      -3.95295772      -3.54815917 snap2000
Ni     -43.22224506      -3.96131462      -3.50904366 snap2000
Ni     -35.43214516      -3.90483827      -3.52510874 snap2000
Ni     -27.66625718      -3.88042251      -3.55065444 snap2000
Ni     -19.78602267      -3.95030174      -3.54374414 snap2000
Ni     -11.98135962      -3.96813853      -3.55218275 snap2000
Ni      -4.09546881      -4.06889547      -3.53415708 snap2000
Ni     -71.48320810      -5.68433546      -3.52356796 snap2000
Ni     -63.76832298      -5.53634489      -3.52608327 snap2000
Ni     -55.76079302      -5.59298663      -3.51163769 snap2000
Ni     -47.89547183      -5.50559027      -3.52814059 snap2000
Ni     -40.07638079      -5.53438235      -3.51553986 snap2000
Ni     -32.26732005      -5.50315571      -3.52275366 snap2000
Ni     -24.47765482      -5.51470512      -3.54496440 snap2000
Mo     -16.72868282      -5.53838317      -3.52658644 snap2000
Ni      -8.83452243      -5.57120535      -3.55124374 snap2000
Mo      -1.04109184      -5.76484159      -3.46194424 snap2000
Ni     -76.04856791      -7.34277194      -3.52343866 snap2000
Cr     -68.36447892      -7.19105730      -3.52411888 snap2000
Ni     -60.47130021      -7.14248356      -3.52076413 snap2000
Ni     -52.62407386      -7.11312073      -3.51126245 snap2000
Ni     -44.72661835      -7.08246190      -3.51031120 snap2000
Ni     -36.99297303      -7.09150363      -3.52551471 snap2000
Ni     -29.25553647      -7.05691828      -3.51707063 snap2000
Ni     -21.37489833      -7.09086168      -3.55445268 snap2000
Ni     -13.56842492      -7.12972874      -3.54775213 snap2000
Ni      -5.68398740      -7.21091892      -3.51829135 snap2000
Ni     -73.04743570      -4.92957191      -1.73287744 snap2000
Cr     -65.29304297      -4.76735894      -1.75090742 snap2000
Ni     -57.33390189      -4.80978288      -1.74399757 snap2000
Ni     -49.44597732      -4.73809443      -1.79186872 snap2000
Fe     -41.65075644      -4.74296073      -1.75714737 snap2000
Ni     -33.84076333      -4.72088861      -1.76980419 snap2000
Mo     -26.10384860      -4.71803436      -1.75981491 snap2000
Ni     -18.26983259      -4.72024097      -1.73025147 snap2000
Cr     -10.36250197      -4.76179708      -1.75080863 snap2000
Ni      -2.55082567      -4.84797164      -1.76363494 snap2000
Ni     -77.36248485      -6.60617237      -1.76841201 snap2000
Ni     -69.93705709      -6.43219966      -1.75229507 snap2000
Mo     -62.10478970      -6.33605366      -1.75785482 snap2000
Cr     -54.16930313      -6.39488031      -1.76500337 snap2000
Ni     -46.29947041      -6.28292048      -1.76153222 snap2000
Fe     -38.52802587      -6.30859392      -1.76320668 snap2000
Fe     -30.76838453      -6.27897362      -1.74910392 snap2000
Mo     -22.90872711      -6.29647071      -1.76367072 snap2000
Ni     -15.14574751      -6.32714159      -1.72453462 snap2000
Mo      -7.27611595      -6.39119326      -1.76065244 snap2000
520
Lattice="0.0 0.0 -7.04 4e-16 -7.870959280799259 3.5200000000000014 -102.32247065039037 0.0 -6.3e-15" Properties=species:S:1:pos:R:3:frame_label:S:1 pbc="T T T"
Mo    -101.05717279      -2.78924103       0.07131375 final
Cr     -92.83219524      -2.97745778      -0.01222875 final
Mo     -84.99327876      -2.96165613       0.00142934 final
Ni     -97.52412829      -1.37763836      -0.01354037 final
Ni     -89.71817262      -1.42889277      -0.00000336 final
Ni     -81.91850403      -1.36939428      -0.00049243 final
Ni    -102.45425214      -0.27405770       0.01313381 final
Ni     -94.37477671       0.13857255      -0.02626978 final
Ni     -86.59376797       0.16505251       0.00144323 final
Ni     -99.06327555      -2.13360280      -1.73904552 final
Ni     -91.27679354      -2.20807702      -1.76264200 final
Ni     -83.43558350      -2.14652083      -1.77028766 final
Ni     -95.98906676      -0.63176375      -1.75739800 final
Ni     -88.16770493      -0.64394941      -1.76075213 final
Ni     -80.24079443      -0.53391987      -1.76270053 final
Cr     -98.25648252       0.22727543      -1.75447667 final
Ni     -90.46470972       0.12577876      -1.77542796 final
Ni     -82.69564580       0.21206553      -1.76244218 final
Ni     -95.16029518      -2.21979805      -0.03045690 final
Ni     -87.44002582      -2.17791801       0.00162504 final
Ni     -79.63147473      -2.02060000      -0.00090831 final
Ni     -99.83219914      -0.50151768      -0.05607279 final
Ni     -92.02827719      -0.66092565      -0.01939960 final
Ni     -84.25746396      -0.54180547       0.00061589 final
Cr     -96.75837293      -2.98026755      -1.75871913 final
Ni     -88.96674880      -2.97887357      -1.74750307 final
Cr     -81.13224137      -2.89438924      -1.76131020 final
Ni    -101.27759852      -1.33070402      -1.76364927 final
Ni     -93.59262954      -1.44010960      -1.75610591 final
Ni     -85.83740077      -1.36840236      -1.74799211 final
Mo     -77.29916773      -1.11464765      -1.72146044 final
Ni     -69.16745815      -0.89719862      -1.77571234 final
Ni     -61.25770304      -0.84377992      -1.79550110 final
Cr     -53.39653858      -0.83901602      -1.75920226 final
Ni     -45.50561403      -0.84891555      -1.76699118 final
Ni     -37.73500145      -0.79568735      -1.75669370 final
Ni     -29.98248637      -0.73419518      -1.75593096 final
Ni     -22.14301708      -0.81593056      -1.76131707 final
Cr     -14.35602165      -0.81154216      -1.79908423 final
Ni      -6.47626810      -0.91390514      -1.72553342 final
Ni     -73.87897478      -2.61737548      -1.73567143 final
Ni     -66.05615666      -2.45332524      -1.76644919 final
Ni     -58.10627596      -2.36644838      -1.75809774 final
Mo     -50.24941921      -2.37630537      -1.75901287 final
Ni     -42.41915643      -2.41354712      -1.75805707 final
Ni     -34.69613321      -2.34592856      -1.76066680 final
Ni     -26.84581054      -2.30744049      -1.72101616 final
Fe     -19.06849197      -2.38132264      -1.77557146 final
Ni     -11.23483072      -2.46060866      -1.76814764 final
Ni      -3.33865690      -2.56020284      -1.75844366 final
Ni     -78.65453712       0.29728292      -0.00188435 final
Fe     -70.71021281      -0.11297414      -0.00358794 final
Ni     -62.87186065      -0.03701048      -0.00278827 final
Ni     -54.97101223      -0.04148980      -0.00660331 final
Mo     -47.06916016      -0.04494949      -0.00020935 final
Ni     -39.25649583      -0.01131724       0.00822282 final
Ni     -31.54907087       0.02257353       0.01926672 final
Ni     -23.71598927      -0.03284619      -0.01576408 final
Ni     -15.89942870      -0.00509772      -0.00391119 final
Ni      -8.02519241      -0.09056551      -0.03268318 final
Ni     -75.37029068      -1.81664382      -0.00270539 final
Ni     -67.61134472      -1.65086853      -0.00900352 final
Ni     -59.67674092      -1.59399525      -0.00373423 final
Ni     -51.86492381      -1.58515400       0.01330370 final
Ni     -43.99389430      -1.61664128       0.00283049 final
Fe     -36.22280898      -1.55537278       0.01992175 final
Ni     -28.42221453      -1.51410388       0.02444668 final
Ni     -20.61189428      -1.59005239      -0.01441004 final
Ni     -12.79663229      -1.61612476      -0.00197551 final
Ni      -4.88964137      -1.73350281       0.02980839 final
Ni     -72.31858063      -3.36612178      -0.00309635 final
Ni     -64.49496461      -3.22297455      -0.00405465 final
Ni     -56.55085065      -3.14851995      -0.00428673 final
Ni     -48.71127936      -3.18437340       0.06521664 final
Ni     -40.84678328      -3.20985173       0.00680838 final
Ni     -33.11559219      -3.15428842       0.05534608 final
Ni     -25.25655347      -3.10885769       0.00627935 final
Ni     -17.50473835      -3.18837306      -0.00249638 final
Ni      -9.61591451      -3.24913929       0.01607622 final
Ni      -1.69312256      -3.31775520      -0.00812550 final
Ni     -74.60620612      -0.25565850      -1.75570959 final
Ni     -66.87721058      -0.04762092      -1.74478332 final
Ni     -58.88222419      -0.05908811      -1.75833984 final
Ni     -51.10029716      -0.01527524      -1.73089467 final
Ni     -43.20285793      -0.00004180      -1.75998301 final
Ni     -35.43345659       0.00095047      -1.75827906 final
Ni     -27.65761080       0.02441964      -1.72475960 final
Ni     -19.82357387      -0.00418080      -1.78202375 final
Ni     -12.02185814      -0.04068443      -1.77184149 final
Mo      -4.06799591      -0.17152054      -1.75326829 final
Ni     -71.52329593      -1.71808622      -1.76697392 final
Ni     -63.64775012      -1.62030604      -1.80347461 final
Ni     -55.74905542      -1.57029754      -1.75925613 final
Ni     -47.89201473      -1.61063571      -1.75433763 final
Ni     -40.04005047      -1.61211521      -1.75961927 final
Ni     -32.32681767      -1.58358299      -1.76363612 final
Ni     -24.48515223      -1.57789291      -1.72863366 final
Ni     -16.70755049      -1.59200785      -1.80671599 final
Ni      -8.83003327      -1.68780163      -1.72396824 final
Cr      -1.13111742      -1.79654706      -1.76504005 final
Ni     -76.19785366      -3.56669281      -1.77242042 final
Fe     -68.36293533      -3.25902346      -1.81041467 final
Ni     -60.51924738      -3.18374921      -1.79427958 final
Ni     -52.61210118      -3.15888285      -1.76736637 final
Ni     -44.73477041      -3.20155246      -1.76076043 final
Ni     -36.99389210      -3.16322890      -1.76788001 final
Mo     -29.21900100      -3.10188956      -1.75850735 final
Cr     -21.36864096      -3.16749364      -1.77055481 final
Ni     -13.57081435      -3.16663096      -1.78164927 final
Ni      -5.67548181      -3.28855356      -1.73275172 final
Fe     -73.04530494      -0.98524592      -0.00220302 final
Mo     -65.24392900      -0.83021964      -0.00392374 final
Cr     -57.33654805      -0.81579343      -0.00596719 final
Ni     -49.50674170      -0.81275419       0.04019317 final
Mo     -41.62547805      -0.80577193       0.00095335 final
Fe     -33.89815302      -0.77319965       0.02225027 final
Cr     -26.06630153      -0.77104395       0.00382574 final
Mo     -18.25383496      -0.78304094       0.00070339 final
Mo     -10.42909864      -0.83584585      -0.01159030 final
Ni      -2.52175166      -0.98096364       0.03341551 final
Ni     -77.47780594      -2.71634636      -0.00217106 final
Mo     -69.96141110      -2.49774144       0.00115015 final
Cr     -62.09440392      -2.40394053      -0.00300305 final
Ni     -54.16641363      -2.36332536      -0.00473290 final
Ni     -46.30925254      -2.42988024       0.03170511 final
Ni     -38.51483732      -2.37040131       0.01022565 final
Ni     -30.76708915      -2.34544025       0.05859012 final
Ni     -22.90023568      -2.37481303      -0.01288548 final
Mo     -15.15497111      -2.37362890       0.00598440 final
Cr      -7.26503425      -2.47744998       0.00286894 final
Mo    -101.02443105      -6.78211272       1.76662500 final
Ni     -92.78090046      -6.92390286       1.77121034 final
Cr     -85.03130671      -6.90372823       1.75233373 final
Ni     -97.52755550      -5.30650650       1.75843395 final
Ni     -89.72789778      -5.36151568       1.74411758 final
Ni     -81.89862850      -5.24074039       1.75923741 final
Ni    -102.48111754      -4.18008415       1.77508954 final
Ni     -94.39205165      -3.72321204       1.76566714 final
Ni     -86.62320587      -3.77922476       1.72943115 final
Ni     -99.03637256      -6.08859105       0.02192977 final
Ni     -91.26465680      -6.14943930       0.02057179 final
Ni     -83.49032274      -6.09153159       0.00012137 final
Ni     -95.98371652      -4.52430057      -0.02349670 final
Ni     -88.17527865      -4.56769477       0.00013843 final
Ni     -80.27732377      -4.38896663      -0.00122384 final
Ni     -98.28827484      -3.72006230      -0.00095783 final
Fe     -90.52439762      -3.76811401       0.01221705 final
Ni     -82.62497060      -3.72680330      -0.00022193 final
Mo     -95.16581667      -6.10593097       1.76093736 final
Ni     -87.36437070      -6.17238294       1.74369810 final
Ni     -79.54768351      -5.92949457       1.75091035 final
Ni     -99.80013151      -4.42241007       1.74044167 final
Ni     -92.07447190      -4.53492665       1.76019250 final
Ni     -84.24194942      -4.57188302       1.76285531 final
Ni     -96.76460674      -6.89256239      -0.00599580 final
Fe     -88.93290059      -6.96047454       0.00677400 final
Mo     -81.08813067      -6.84047933      -0.00068347 final
Ni    -101.16638135      -5.15446416       0.00748583 final
Ni     -93.59541723      -5.30073582       0.00137052 final
Ni     -85.82250589      -5.38472238       0.00102613 final
Mo     -77.59026479      -5.07076847      -0.00280905 final
Ni     -69.14230422      -4.87094532      -0.00939533 final
Ni     -61.30831382      -4.76258256      -0.00166763 final
Ni     -53.36561267      -4.78254038       0.00336890 final
Ni     -45.49039345      -4.76908645       0.01154824 final
Fe     -37.77409863      -4.73571639       0.00500588 final
Ni     -30.00531069      -4.72480092       0.02704987 final
Ni     -22.13915481      -4.70484245       0.01211600 final
Ni     -14.35797004      -4.76590201       0.02574342 final
Ni      -6.46436356      -4.83632670       0.03255263 final
Ni     -73.80284323      -6.51884973      -0.00273379 final
Ni     -66.07157631      -6.29330127      -0.00370472 final
Ni     -58.10460770      -6.37990681      -0.00103575 final
Mo     -50.29693759      -6.31164124      -0.01097809 final
Ni     -42.41228435      -6.27320256      -0.00235258 final
Ni     -34.65673835      -6.29291689       0.02628210 final
Ni     -26.89723121      -6.29055928       0.00686335 final
Ni     -19.04134497      -6.27636450       0.00341977 final
Ni     -11.20334085      -6.31235841       0.05179756 final
Ni      -3.37061888      -6.48274851      -0.03597261 final
Ni     -78.78311658      -3.56723928       1.76805772 final
Ni     -70.71264315      -4.12337489       1.75731736 final
Ni     -62.92130025      -3.96381548       1.79105032 final
Mo     -54.96813369      -3.97485207       1.75449005 final
Ni     -47.10261889      -3.98340298       1.76720479 final
Ni     -39.30665972      -3.96816612       1.77160391 final
Ni     -31.55947274      -3.94797527       1.75865233 final
Ni     -23.67847163      -3.91923283       1.75426469 final
Ni     -15.93889238      -3.96684567       1.75132472 final
Ni      -8.05098087      -4.04194537       1.73135136 final
Cr     -75.25864447      -5.79399666       1.74825480 final
Ni     -67.60281863      -5.58543090       1.77020397 final
Ni     -59.69111906      -5.59228359       1.76403201 final
Ni     -51.85546491      -5.53683485       1.78500536 final
Ni     -43.92500710      -5.51334398       1.76256844 final
Ni     -36.20930301      -5.50171742       1.77191686 final
Ni     -28.46329855      -5.50280233       1.76832444 final
Ni     -20.59873170      -5.50371659       1.75134647 final
Cr     -12.78816130      -5.54250921       1.76165595 final
Ni      -4.91515177      -5.64347776       1.75985648 final
Ni     -72.26571956      -7.25066514       1.74337966 final
Ni     -64.49798519      -7.08306453       1.74985866 final
Ni     -56.54074561      -7.15051643       1.75961860 final
Ni     -48.72613837      -7.11418794       1.78320162 final
Ni     -40.83295629      -7.06628560       1.76263513 final
Ni     -33.11169054      -7.06146332       1.76205961 final
Ni     -25.27983963      -7.10932150       1.79869118 final
Ni     -17.48108606      -7.08296566       1.69807064 final
Ni      -9.59962250      -7.11669027       1.76792289 final
Ni      -1.67230309      -7.29684312       1.76512899 final
Ni     -74.70503325      -4.23735975      -0.00273355 final
Ni     -66.84842459      -3.99210578      -0.01486402 final
Mo     -58.91780272      -3.98540370      -0.00176139 final
Ni     -51.05314834      -3.93499845       0.04178054 final
Ni     -43.18876553      -3.96067344       0.00424075 final
Ni     -35.45339252      -3.93084074       0.03543052 final
Ni     -27.66543171      -3.90526922       0.02003343 final
Ni     -19.85219685      -3.91947804      -0.00669853 final
Ni     -11.99661542      -3.97275744       0.04324259 final
Cr      -4.08400860      -4.08703495       0.01954364 final
Cr     -71.47093007      -5.68214592      -0.00031170 final
Ni     -63.72844964      -5.51804431      -0.00216579 final
Ni     -55.76060161      -5.59457707       0.00097312 final
Ni     -47.89963116      -5.52136401       0.04235507 final
Ni     -40.08087757      -5.52715228       0.01256383 final
Ni     -32.32693234      -5.50807366       0.03623093 final
Ni     -24.48721685      -5.53098367       0.01708760 final
Cr     -16.69162518      -5.50559584       0.00465917 final
Ni      -8.84243547      -5.58625820       0.04730560 final
Mo      -1.05819846      -5.75122395      -0.04625590 final
Ni     -76.06895936      -7.39647273      -0.00207643 final
Ni     -68.38129771      -7.17903278      -0.00261862 final
Ni     -60.45185115      -7.14085999      -0.00398040 final
Ni     -52.67525071      -7.14141896       0.00272481 final
Ni     -44.71679738      -7.08919234      -0.00445602 final
Fe     -36.97114798      -7.08694789       0.00833212 final
Ni     -29.22086133      -7.06135470      -0.00517295 final
Fe     -21.36116765      -7.08582124       0.02332944 final
Ni     -13.54949374      -7.12161152       0.02713606 final
Ni      -5.69383974      -7.23911465       0.00819693 final
Ni     -73.04927241      -4.94044857       1.72093413 final
Cr     -65.27981673      -4.76486292       1.75515868 final
Ni     -57.32426949      -4.80073768       1.75152369 final
Ni     -49.47499747      -4.72488739       1.80587484 final
Cr     -41.62364231      -4.74248442       1.75328448 final
Cr     -33.89221559      -4.72920642       1.76298128 final
Mo     -26.06877848      -4.70706286       1.76074491 final
Ni     -18.28323521      -4.72612738       1.72837054 final
Cr     -10.41155293      -4.76436223       1.75211622 final
Ni      -2.56871270      -4.91059697       1.77370751 final
Ni     -77.36361544      -6.60833637       1.76194100 final
Ni     -69.92994715      -6.43864533       1.75151202 final
Mo     -62.09269515      -6.33855333       1.75765983 final
Ni     -54.18251792      -6.39038808       1.76385512 final
Ni     -46.29040300      -6.31204357       1.76150660 final
Ni     -38.51315140      -6.29867468       1.77415654 final
Fe     -30.77608942      -6.29979741       1.75854406 final
Ni     -22.91880336      -6.30800991       1.76530203 final
Ni     -15.12381150      -6.32134175       1.72781206 final
Cr      -7.24607812      -6.39886020       1.75965989 final
Mo    -100.98355884      -2.79410555      -3.58083459 final
Cr     -92.84537172      -2.97346115      -3.50124304 final
Mo     -85.03989625      -2.97664779      -3.51938720 final
Ni     -97.53347157      -1.37013314      -3.50478320 final
Cr     -89.72073091      -1.43636266      -3.51298434 final
Ni     -81.91827353      -1.35951014      -3.52002591 final
Ni    -102.45000095      -0.25247810      -3.52680588 final
Ni     -94.37009955       0.14213167      -3.48523284 final
Ni     -86.57744521       0.16064554      -3.51778350 final
Ni     -99.01703785      -2.12975070      -5.29804124 final
Ni     -91.28196258      -2.20534806      -5.26947635 final
Ni     -83.43501093      -2.14630374      -5.26917809 final
Mo     -95.93916782      -0.63011101      -5.27468572 final
Ni     -88.16329588      -0.64442990      -5.27450514 final
Ni     -80.24073212      -0.53352286      -5.27947912 final
Cr     -98.39682041       0.22800241      -5.27883922 final
Ni     -90.46951668       0.12114225      -5.26486947 final
Ni     -82.69543475       0.21203625      -5.27775586 final
Ni     -95.16438265      -2.21264439      -3.48358666 final
Ni     -87.41478872      -2.17251925      -3.51696248 final
Ni     -79.65684782      -2.04271412      -3.52139548 final
Ni     -99.82493415      -0.49007072      -3.45388111 final
Ni     -92.02127311      -0.66363899      -3.49318377 final
Ni     -84.25514274      -0.55384415      -3.51952170 final
Ni     -96.73397140      -2.99514604      -5.28600676 final
Ni     -88.96316940      -2.97351901      -5.28665868 final
Cr     -81.13188009      -2.89448418      -5.28009133 final
Ni    -101.13975029      -1.17883523      -5.26878713 final
Ni     -93.57578315      -1.45039304      -5.27573923 final
Ni     -85.83618806      -1.36912102      -5.28947004 final
Mo     -77.29826201      -1.11541954      -5.32289074 final
Ni     -69.16683285      -0.87989261      -5.27044217 final
Ni     -61.26344764      -0.84691349      -5.25045513 final
Ni     -53.42349762      -0.80517259      -5.28649153 final
Ni     -45.50101752      -0.83611794      -5.27390890 final
Mo     -37.73875513      -0.78720315      -5.28153702 final
Ni     -29.99510557      -0.74351093      -5.28733448 final
Ni     -22.14400262      -0.82287623      -5.27801870 final
Ni     -14.34525242      -0.80021641      -5.24163845 final
Ni      -6.44178889      -0.92269522      -5.31331661 final
Ni     -73.87890748      -2.61682853      -5.30918777 final
Ni     -66.04794247      -2.44925938      -5.28267602 final
Ni     -58.10512823      -2.36622885      -5.28714691 final
Cr     -50.27429577      -2.36565193      -5.27735456 final
Ni     -42.42837520      -2.42291950      -5.28004193 final
Ni     -34.67541154      -2.35580018      -5.28075045 final
Ni     -26.86141113      -2.30489175      -5.31666891 final
Ni     -19.05492673      -2.37025314      -5.26520550 final
Ni     -11.21268183      -2.43406042      -5.27464361 final
Ni      -3.31912848      -2.54803406      -5.27869044 final
Ni     -78.63429380       0.24394623      -3.52170580 final
Ni     -70.72434647      -0.12545120      -3.52247216 final
Fe     -62.86209238      -0.05618644      -3.52269106 final
Cr     -55.00095996      -0.04755128      -3.52757048 final
Mo     -47.10942383      -0.02595985      -3.52155442 final
Ni     -39.25316853      -0.00927656      -3.52868947 final
Cr     -31.54138105       0.02376187      -3.53929253 final
Ni     -23.69201240      -0.02362275      -3.49980488 final
Ni     -15.91422598      -0.00367066      -3.51716392 final
Ni      -8.03277441      -0.07908229      -3.48217851 final
Ni     -75.31046504      -1.85236350      -3.52253535 final
Ni     -67.62801480      -1.66756691      -3.51721141 final
Ni     -59.70537058      -1.60950131      -3.51993533 final
Ni     -51.84442151      -1.57696556      -3.53673041 final
Ni     -43.98657797      -1.61949516      -3.52240780 final
Ni     -36.22744529      -1.55800921      -3.54121328 final
Ni     -28.44703856      -1.51712289      -3.54881281 final
Ni     -20.61351070      -1.59682945      -3.50260869 final
Cr     -12.83803279      -1.63631942      -3.51794473 final
Ni      -4.86706057      -1.73434455      -3.54858728 final
Mo     -72.32411526      -3.33923778      -3.52165530 final
Ni     -64.47011444      -3.21265368      -3.52297387 final
Ni     -56.53394613      -3.14739877      -3.52131883 final
Ni     -48.69204695      -3.16380941      -3.58073388 final
Ni     -40.85353315      -3.21360732      -3.52643201 final
Ni     -33.11100599      -3.15739618      -3.57691286 final
Ni     -25.24481906      -3.12701524      -3.52410999 final
Ni     -17.50335979      -3.15567235      -3.52095722 final
Ni      -9.63352719      -3.25683070      -3.53347518 final
Ni      -1.72921657      -3.32657584      -3.51527195 final
Ni     -74.60649242      -0.25545950      -5.28933304 final
Ni     -66.87530866      -0.04321932      -5.30212419 final
Fe     -58.87994852      -0.05343632      -5.27997602 final
Ni     -51.08271004      -0.03215261      -5.30555754 final
Ni     -43.21233124       0.00947230      -5.27919979 final
Ni     -35.45294250       0.01897646      -5.27957246 final
Ni     -27.65905407       0.03649104      -5.31417007 final
Ni     -19.85150505       0.00791398      -5.25970072 final
Ni     -12.02910546      -0.06268177      -5.26611122 final
Cr      -4.13484196      -0.14678111      -5.28738543 final
Ni     -71.52649772      -1.71642922      -5.27420916 final
Ni     -63.64950852      -1.62082814      -5.24267460 final
Ni     -55.76534178      -1.57325680      -5.28864517 final
Ni     -47.91000921      -1.62804646      -5.28606077 final
Ni     -40.03898040      -1.61478474      -5.27674627 final
Ni     -32.33045349      -1.55342852      -5.28769846 final
Ni     -24.47956615      -1.56973259      -5.31172717 final
Ni     -16.70661769      -1.58346853      -5.23387212 final
Ni      -8.81004454      -1.65943049      -5.31588408 final
Ni      -0.98362292      -1.87156383      -5.27302739 final
Ni     -76.19814559      -3.56788914      -5.27227940 final
Fe     -68.37570843      -3.25999741      -5.25545880 final
Ni     -60.51778976      -3.18254835      -5.24995583 final
Ni     -52.58625229      -3.15104274      -5.27473793 final
Ni     -44.74767679      -3.20096204      -5.27739427 final
Ni     -37.00200356      -3.14086278      -5.27372704 final
Mo     -29.21233117      -3.12342820      -5.29179848 final
Ni     -21.35954689      -3.15164620      -5.27083387 final
Ni     -13.55691407      -3.18535047      -5.26124121 final
Ni      -5.66166242      -3.29092699      -5.30029257 final
Ni     -73.06466220      -0.95897875      -3.52212146 final
Mo     -65.29073730      -0.81654191      -3.52298552 final
Ni     -57.31771218      -0.81683936      -3.52140229 final
Ni     -49.49143438      -0.81978884      -3.55644017 final
Mo     -41.62723698      -0.80594883      -3.51877212 final
Ni     -33.89757432      -0.77411214      -3.53936367 final
Mo     -26.06815626      -0.77325172      -3.52144213 final
Fe     -18.29893536      -0.79399472      -3.52332855 final
Mo     -10.40683680      -0.85334724      -3.50807074 final
Ni      -2.51940486      -0.97978364      -3.54835184 final
Ni     -77.46765639      -2.62441253      -3.52208253 final
Ni     -69.93879043      -2.49244878      -3.51495544 final
Cr     -62.07691222      -2.39204049      -3.52203201 final
Ni     -54.16289741      -2.34429985      -3.51771868 final
Ni     -46.30698813      -2.41911272      -3.54921590 final
Ni     -38.51852086      -2.38242104      -3.52176014 final
Ni     -30.77388567      -2.34806142      -3.57824929 final
Ni     -22.91591766      -2.36449405      -3.50785612 final
Ni     -15.12900838      -2.39740314      -3.52839690 final
Mo      -7.24607328      -2.47967085      -3.52290109 final
Mo    -100.94138925      -6.72308755      -1.76064758 final
Mo     -92.81891850      -6.93048332      -1.76175378 final
Cr     -85.03161561      -6.90394318      -1.75057944 final
Ni     -97.53705756      -5.32697692      -1.75006176 final
Ni     -89.74295136      -5.37412511      -1.73817434 final
Ni     -81.89858357      -5.24090381      -1.76014718 final
Ni    -102.40138357      -4.01394546      -1.77348761 final
Ni     -94.36508268      -3.76230745      -1.75961733 final
Ni     -86.62164919      -3.77833296      -1.72643795 final
Ni     -99.02874054      -6.10377331      -3.53634041 final
Ni     -91.23833083      -6.13321665      -3.53441690 final
Ni     -83.48065641      -6.09366944      -3.51981493 final
Ni     -95.98132204      -4.52184238      -3.49104771 final
Mo     -88.17989115      -4.58699900      -3.51535384 final
Ni     -80.28809209      -4.40885777      -3.52107534 final
Ni     -98.30774466      -3.71250400      -3.50899225 final
Fe     -90.53597056      -3.74673026      -3.52551678 final
Ni     -82.63705759      -3.72121559      -3.52006043 final
Ni     -95.18129868      -6.09429989      -1.75445675 final
Ni     -87.36489334      -6.17301009      -1.73958328 final
Ni     -79.54737909      -5.92940392      -1.75326718 final
Ni     -99.80021222      -4.40850474      -1.73457629 final
Ni     -92.04060676      -4.52747895      -1.75618362 final
Ni     -84.24177512      -4.57190364      -1.76170520 final
Ni     -96.75809079      -6.90207132      -3.50476958 final
Ni     -88.93316885      -6.96871254      -3.52161499 final
Mo     -81.09277713      -6.84780152      -3.52080955 final
Ni    -101.13815153      -5.14641621      -3.52264204 final
Ni     -93.59420352      -5.30233182      -3.51424947 final
Ni     -85.80660785      -5.38784926      -3.51843319 final
Mo     -77.57429468      -5.03016045      -3.52131085 final
Ni     -69.15114683      -4.85600181      -3.51772487 final
Ni     -61.32176360      -4.73973931      -3.52340683 final
Ni     -53.39129611      -4.76231152      -3.52867834 final
Ni     -45.49749091      -4.77212037      -3.53003573 final
Cr     -37.77519023      -4.73284745      -3.51966022 final
Ni     -30.00483413      -4.71575891      -3.54600246 final
Ni     -22.12833567      -4.70097423      -3.53238786 final
Ni     -14.33346359      -4.74827016      -3.55108172 final
Ni      -6.44960972      -4.84589322      -3.55194504 final
Fe     -73.78299779      -6.50990418      -3.52259602 final
Ni     -66.07733526      -6.32310856      -3.52277508 final
Ni     -58.10564649      -6.39853557      -3.52246776 final
Ni     -50.29493848      -6.31090625      -3.52902428 final
Ni     -42.40956458      -6.26794613      -3.51672096 final
Ni     -34.66000426      -6.29411233      -3.54587649 final
Ni     -26.87914926      -6.30523021      -3.52505844 final
Ni     -19.07522555      -6.28811218      -3.52585714 final
Ni     -11.20198456      -6.30461534      -3.57230778 final
Ni      -3.36252765      -6.46882240      -3.48423367 final
Ni     -78.78362153      -3.56642001      -1.77144960 final
Ni     -70.70252262      -4.11372826      -1.76152432 final
Ni     -62.92134088      -3.96313821      -1.79720975 final
Mo     -54.97327310      -3.97816350      -1.75960294 final
Mo     -47.11358705      -3.97649418      -1.76149401 final
Ni     -39.29605207      -3.97365081      -1.77068416 final
Ni     -31.54213653      -3.95470158      -1.75472911 final
Ni     -23.67511001      -3.90935254      -1.75406766 final
Ni     -15.91633411      -3.97531790      -1.75361560 final
Ni      -8.04261906      -4.01925717      -1.72204313 final
Cr     -75.25849228      -5.79343204      -1.75362499 final
Ni     -67.60498857      -5.57187921      -1.77634321 final
Ni     -59.69425437      -5.58444195      -1.76911256 final
Ni     -51.86189851      -5.52387468      -1.79579214 final
Cr     -43.96900869      -5.50545386      -1.75393100 final
Ni     -36.24127028      -5.51014464      -1.77035083 final
Ni     -28.46074796      -5.49966975      -1.76222953 final
Ni     -20.58361870      -5.47722790      -1.75301255 final
Mo     -12.76571060      -5.53844673      -1.76082951 final
Ni      -4.89758333      -5.63718184      -1.75649526 final
Ni     -72.26612477      -7.25064858      -1.74872752 final
Ni     -64.49894911      -7.08364246      -1.75608231 final
Ni     -56.54148529      -7.14647114      -1.76747104 final
Ni     -48.68377706      -7.08221989      -1.78528276 final
Ni     -40.83659956      -7.07282687      -1.75946903 final
Ni     -33.10144776      -7.08417081      -1.75883028 final
Ni     -25.29657942      -7.10149491      -1.79562832 final
Ni     -17.49561365      -7.08346919      -1.69987684 final
Ni      -9.66021370      -7.11355326      -1.76657300 final
Ni      -1.74812269      -7.35075631      -1.75935458 final
Ni     -74.69053286      -4.25839915      -3.52239323 final
Ni     -66.80752249      -4.00987016      -3.51913859 final
Mo     -58.89006637      -3.99880417      -3.52306789 final
Ni     -51.04841216      -3.94745323      -3.56466879 final
Fe     -43.19271858      -3.95823560      -3.52360301 final
Ni     -35.46334350      -3.92594909      -3.55156440 final
Ni     -27.65335545      -3.88496670      -3.53725164 final
Ni     -19.82285573      -3.93856303      -3.51716715 final
Ni     -11.97954950      -3.97146459      -3.55614877 final
Cr      -4.11086902      -4.08097471      -3.53553258 final
Fe     -71.47874021      -5.69642316      -3.52249821 final
Ni     -63.75061341      -5.53215902      -3.52407069 final
Ni     -55.76809309      -5.58787885      -3.52684225 final
Ni     -47.90431288      -5.52928952      -3.55694635 final
Ni     -40.07077332      -5.52385252      -3.52425538 final
Cr     -32.32244988      -5.51166230      -3.55188510 final
Ni     -24.46916470      -5.51102566      -3.53536270 final
Mo     -16.72812719      -5.53687345      -3.52476538 final
Ni      -8.82945626      -5.57004716      -3.56642693 final
Mo      -1.04268918      -5.75419466      -3.46636136 final
Ni     -76.05267255      -7.35070024      -3.52264623 final
Cr     -68.40580662      -7.19177799      -3.52333434 final
Ni     -60.46170702      -7.15099948      -3.52032384 final
Cr     -52.62934438      -7.11448731      -3.50688876 final
Ni     -44.70827526      -7.08778987      -3.51687429 final
Ni     -36.97316502      -7.07765038      -3.51958590 final
Fe     -29.24684686      -7.04698310      -3.51109619 final
Ni     -21.36557402      -7.10237862      -3.54533762 final
Ni     -13.56582582      -7.11952732      -3.55061802 final
Ni      -5.67926503      -7.21512533      -3.52702496 final
Ni     -73.04733846      -4.94068793      -1.72572006 final
Cr     -65.28133658      -4.76512740      -1.76391638 final
Ni     -57.32824847      -4.80334340      -1.75602705 final
Ni     -49.49598871      -4.74468048      -1.79695279 final
Ni     -41.65211109      -4.74595784      -1.76044571 final
Mo     -33.90463128      -4.71371762      -1.76203983 final
Mo     -26.07224487      -4.70867839      -1.75886735 final
Ni     -18.26385162      -4.72502343      -1.72972017 final
Ni     -10.38733564      -4.77478601      -1.75252450 final
Ni      -2.55557238      -4.86091359      -1.76801668 final
Ni     -77.36326862      -6.60980540      -1.76622434 final
Ni     -69.93040760      -6.43474915      -1.75753414 final
Mo     -62.09317622      -6.33809805      -1.76280166 final
Ni     -54.18886637      -6.36559069      -1.76688863 final
Ni     -46.27087499      -6.31912836      -1.76005256 final
Ni     -38.52191794      -6.31653582      -1.76546469 final
Ni     -30.77992744      -6.27814540      -1.75694148 final
Mo     -22.90819213      -6.31546736      -1.76418197 final
Ni     -15.14366466      -6.33000258      -1.72593445 final
Mo      -7.27651863      -6.39727710      -1.76002032 final
