130
Lattice="0.0 0.0 -3.52 2e-16 -3.9354796403996297 1.7600000000000007 -102.32247065039037 0.0 -6.3e-15" Properties=species:S:1:pos:R:3:frame_label:S:1 pbc="T T T"
Ni    -100.68421613      -3.12817769      -0.00000000 random
Ni     -92.83912035      -3.15220828      -0.00000000 random
Ni     -85.08944627      -3.14675678      -0.00000000 random
Ni     -97.49635799      -1.56976201      -0.00000000 random
Ni     -89.74084859      -1.57280813      -0.00000000 random
Ni     -82.01308271      -1.56713148      -0.00000000 random
Fe    -102.32334456      -0.01198342      -0.00000000 random
Ni     -94.38747173      -0.00509226      -0.00000000 random
Ni     -86.64459173       0.00509226      -0.00000000 random
Ni     -99.01898075      -2.36834816      -1.76000000 random
Cr     -91.29121487      -2.36267151      -1.76000000 random
Mo     -83.53570547      -2.36571763      -1.76000000 random
Ni     -95.94261719      -0.78872286      -1.76000000 random
Ni     -88.19294311      -0.78327136      -1.76000000 random
Ni     -80.34784733      -0.80730195      -1.76000000 random
Ni     -98.28548225       0.00638148      -1.76000000 random
Ni     -90.51603173       0.00000000      -1.76000000 random
Ni     -82.74658121      -0.00638148      -1.76000000 random
Cr     -95.16397428      -2.36492959      -0.00000000 random
Ni     -87.41715697      -2.35689535      -0.00000000 random
Ni     -79.80510840      -2.38181110      -0.00000000 random
Mo     -99.83824749      -0.74628196      -0.00000000 random
Ni     -92.06429434      -0.79030318      -0.00000000 random
Ni     -84.32128036      -0.78349434      -0.00000000 random
Mo     -96.71078310      -3.15198530      -1.76000000 random
Ni     -88.96776911      -3.14517646      -1.76000000 random
Ni     -81.19381597      -3.18919768      -1.76000000 random
Mo    -101.22695506      -1.55366854      -1.76000000 random
Ni     -93.61490649      -1.57858429      -1.76000000 random
Ni     -85.86808917      -1.57055005      -1.76000000 random
Ni     -77.06870959      -0.80694054      -1.76000000 random
Cr     -69.19580674      -0.77997460      -1.76000000 random
Mo     -61.38003842      -0.78579651      -1.76000000 random
Ni     -53.52214389      -0.78706552      -1.76000000 random
Ni     -45.65156116      -0.78709580      -1.76000000 random
Ni     -37.78060477      -0.78709594      -1.76000000 random
Ni     -29.90966339      -0.78709706      -1.76000000 random
Cr     -22.04074162      -0.78727425      -1.76000000 random
Ni     -14.19773857      -0.79019384      -1.76000000 random
Ni      -6.39440802      -0.79036345      -1.76000000 random
Ni     -73.87450081      -2.36470172      -1.76000000 random
Ni     -66.07520422      -2.35684258      -1.76000000 random
Ni     -58.24089081      -2.36090943      -1.76000000 random
Ni     -50.37408761      -2.36128415      -1.76000000 random
Mo     -42.50317956      -2.36128776      -1.76000000 random
Ni     -34.63222203      -2.36128784      -1.76000000 random
Ni     -26.76140607      -2.36129878      -1.76000000 random
Ni     -18.89818089      -2.36202534      -1.76000000 random
Ni     -11.07228666      -2.36721621      -1.76000000 random
Mo      -3.30869562      -2.36886856      -1.76000000 random
Ni     -78.70871890       0.01198342      -0.00000000 random
Ni     -70.75281085       0.00748857      -0.00000000 random
Ni     -62.94670336       0.00210653      -0.00000000 random
Ni     -55.09579383       0.00007700      -0.00000000 random
Ni     -47.22574908       0.00000036      -0.00000000 random
Cr     -39.35479640       0.00000000      -0.00000000 random
Ni     -31.48384373      -0.00000036      -0.00000000 random
Ni     -23.61379897      -0.00007700      -0.00000000 random
Ni     -15.76288945      -0.00210653      -0.00000000 random
Ni      -7.95678196      -0.00748857      -0.00000000 random
Ni     -75.40089718      -1.56661108      -0.00000000 random
Ni     -67.63730615      -1.56826343      -0.00000000 random
Ni     -59.81141192      -1.57345430      -0.00000000 random
Ni     -51.94818674      -1.57418086      -0.00000000 random
Ni     -44.07737078      -1.57419180      -0.00000000 random
Ni     -36.20641324      -1.57419188      -0.00000000 random
Mo     -28.33550520      -1.57419549      -0.00000000 random
Mo     -20.46870199      -1.57457021      -0.00000000 random
Ni     -12.63438859      -1.57863706      -0.00000000 random
Cr      -4.83509200      -1.57077792      -0.00000000 random
Ni     -72.31518479      -3.14511619      -0.00000000 random
Ni     -64.51185424      -3.14528580      -0.00000000 random
Ni     -56.66885119      -3.14820539      -0.00000000 random
Ni     -48.79992942      -3.14838258      -0.00000000 random
Ni     -40.92898804      -3.14838370      -0.00000000 random
Ni     -33.05803165      -3.14838384      -0.00000000 random
Ni     -25.18744892      -3.14841412      -0.00000000 random
Ni     -17.32955438      -3.14968313      -0.00000000 random
Ni      -9.51378607      -3.15550504      -0.00000000 random
Ni      -1.64088322      -3.12853910      -0.00000000 random
Cr     -74.66571632      -0.00561005      -1.76000000 random
Ni     -66.85646447       0.00497554      -1.76000000 random
Ni     -59.02637329       0.00053323      -1.76000000 random
Fe     -51.16114832       0.00000638      -1.76000000 random
Ni     -43.29027523       0.00000004      -1.76000000 random
Ni     -35.41931758      -0.00000004      -1.76000000 random
Cr     -27.54844449      -0.00000638      -1.76000000 random
Fe     -19.68321952      -0.00053323      -1.76000000 random
Ni     -11.85312834      -0.00497554      -1.76000000 random
Ni      -4.04387649       0.00561005      -1.76000000 random
Ni     -71.53308978      -1.56854538      -1.76000000 random
Mo     -63.72944384      -1.57161596      -1.76000000 random
Ni     -55.88242044      -1.57407356      -1.76000000 random
Ni     -48.01284078      -1.57419122      -1.76000000 random
Ni     -40.14189223      -1.57419185      -1.76000000 random
Cr     -32.27093718      -1.57419207      -1.76000000 random
Ni     -24.40057094      -1.57424087      -1.76000000 random
Ni     -16.54598334      -1.57587304      -1.76000000 random
Ni      -8.73356633      -1.58145705      -1.76000000 random
Ni      -1.09856287      -1.55406655      -1.76000000 random
Ni     -76.22147516      -3.18885388      -1.76000000 random
Ni     -68.41614100      -3.14135486      -1.76000000 random
Cr     -60.59596359      -3.14739015      -1.76000000 random
Ni     -52.73519090      -3.14836521      -1.76000000 random
Ni     -44.86446613      -3.14838363      -1.76000000 random
Ni     -36.99350898      -3.14838373      -1.76000000 random
Ni     -29.12257996      -3.14838575      -1.76000000 random
Ni     -21.25456414      -3.14864630      -1.76000000 random
Ni     -13.41571760      -3.15208440      -1.76000000 random
Ni      -5.62315349      -3.15323213      -1.76000000 random
Ni     -73.08643932      -0.78224751      -0.00000000 random
Ni     -65.29387520      -0.78339524      -0.00000000 random
Ni     -57.45502866      -0.78683334      -0.00000000 random
Ni     -49.58701285      -0.78709389      -0.00000000 random
Mo     -41.71608383      -0.78709591      -0.00000000 random
Ni     -33.84512668      -0.78709601      -0.00000000 random
Ni     -25.97440190      -0.78711443      -0.00000000 random
Ni     -18.11362921      -0.78808949      -0.00000000 random
Ni     -10.29345181      -0.79412478      -0.00000000 random
Ni      -2.48811765      -0.74662576      -0.00000000 random
Ni     -77.61102994      -2.38141309      -0.00000000 random
Ni     -69.97602648      -2.35402259      -0.00000000 random
Mo     -62.16360947      -2.35960660      -0.00000000 random
Ni     -54.30902187      -2.36123877      -0.00000000 random
Fe     -46.43865562      -2.36128757      -0.00000000 random
Ni     -38.56770058      -2.36128779      -0.00000000 random
Ni     -30.69675203      -2.36128842      -0.00000000 random
Ni     -22.82717237      -2.36140608      -0.00000000 random
Fe     -14.98014897      -2.36386368      -0.00000000 random
Mo      -7.17650302      -2.36693426      -0.00000000 random
130
Lattice="0.0 0.0 -3.52 2e-16 -3.9354796403996297 1.7600000000000007 -102.32247065039037 0.0 -6.3e-15" Properties=species:S:1:pos:R:3:frame_label:S:1 pbc="T T T"
Mo    -100.70909452      -2.94822958      -0.00000000 snap500
Ni     -92.78856528      -3.02584712      -0.00000000 snap500
Ni     -85.15354394      -3.28833117      -0.00000000 snap500
Ni     -97.51014083      -1.37569891      -0.00000000 snap500
Ni     -89.73691947      -1.54673673      -0.00000000 snap500
Ni     -81.93022077      -1.73041419      -0.00000000 snap500
Ni    -102.35987042       0.20089499      -0.00000000 snap500
Ni     -94.30029129       0.18562345      -0.00000000 snap500
Ni     -86.69776119      -0.06389406      -0.00000000 snap500
Ni     -99.10387050      -2.13458641      -1.76000000 snap500
Fe     -91.27449939      -2.28788419      -1.76000000 snap500
Mo     -83.53617855      -2.52257717      -1.76000000 snap500
Ni     -95.85455304      -0.59357510      -1.76000000 snap500
Ni     -88.21245116      -0.79834725      -1.76000000 snap500
Mo     -79.88740182      -1.12991513      -1.76000000 snap500
Ni     -98.29954519       0.17928054      -1.76000000 snap500
Ni     -90.50090790       0.05014608      -1.76000000 snap500
Ni     -82.69377886      -0.17953848      -1.76000000 snap500
Ni     -95.05993347      -2.14346480      -0.00000000 snap500
Cr     -87.45365282      -2.39710496      -0.00000000 snap500
Ni     -79.80773048      -2.69795582      -0.00000000 snap500
Ni     -99.89523263      -0.58309285      -0.00000000 snap500
Ni     -92.03841869      -0.69556619      -0.00000000 snap500
Ni     -84.35908270      -0.93016234      -0.00000000 snap500
Mo     -96.69263909      -2.94921689      -1.76000000 snap500
Ni     -88.97151640      -3.14288163      -1.76000000 snap500
Ni     -81.14646226      -3.40573232      -1.76000000 snap500
Ni    -101.53612414      -1.36208071      -1.76000000 snap500
Ni     -93.53949126      -1.42065296      -1.76000000 snap500
Ni     -85.93046166      -1.67577494      -1.76000000 snap500
Ni     -76.96615771      -0.59950322      -1.76000000 snap500
Ni     -69.08063715      -0.78266454      -1.76000000 snap500
Ni     -61.20629450      -0.77670414      -1.76000000 snap500
Ni     -53.39384033      -0.83695548      -1.76000000 snap500
Ni     -45.74035114      -0.77905876      -1.76000000 snap500
Ni     -37.83838574      -0.81722804      -1.76000000 snap500
Mo     -30.15225489      -0.76560252      -1.76000000 snap500
Ni     -22.17959059      -0.78110666      -1.76000000 snap500
Ni     -14.31446029      -0.86744256      -1.76000000 snap500
Ni      -6.44187596      -0.93447954      -1.76000000 snap500
Ni     -73.68450704      -2.35062786      -1.76000000 snap500
Cr     -66.03326111      -2.30991143      -1.76000000 snap500
Ni     -57.96425187      -2.43270387      -1.76000000 snap500
Ni     -50.30357652      -2.37125655      -1.76000000 snap500
Ni     -42.69186398      -2.34353675      -1.76000000 snap500
Ni     -34.77844236      -2.36602813      -1.76000000 snap500
Cr     -26.90849795      -2.37254799      -1.76000000 snap500
Ni     -18.90856851      -2.45277841      -1.76000000 snap500
Fe     -11.08114087      -2.48462446      -1.76000000 snap500
Mo      -2.63803048      -2.87041258      -1.76000000 snap500
Ni     -78.55206185       0.23472269      -0.00000000 snap500
Ni     -70.63009249      -0.01115892      -0.00000000 snap500
Mo     -62.80613075       0.02112162      -0.00000000 snap500
Ni     -54.90206965      -0.04803206      -0.00000000 snap500
Ni     -47.27394882       0.00948399      -0.00000000 snap500
Ni     -39.41567560      -0.01041762      -0.00000000 snap500
Ni     -31.74026305       0.03863094      -0.00000000 snap500
Mo     -23.83500337       0.02691471      -0.00000000 snap500
Cr     -15.81486530      -0.09735711      -0.00000000 snap500
Ni      -7.96566477      -0.15096680      -0.00000000 snap500
Ni     -75.24875336      -1.48776518      -0.00000000 snap500
Ni     -67.55944642      -1.55251343      -0.00000000 snap500
Mo     -59.58596155      -1.61447974      -0.00000000 snap500
Ni     -51.84604610      -1.60458992      -0.00000000 snap500
Ni     -44.17845543      -1.55786032      -0.00000000 snap500
Ni     -36.32135060      -1.59297884      -0.00000000 snap500
Ni     -28.49131045      -1.57737695      -0.00000000 snap500
Ni     -20.54708435      -1.62853323      -0.00000000 snap500
Ni     -12.72576457      -1.67248263      -0.00000000 snap500
Cr      -5.08071051      -1.77274051      -0.00000000 snap500
Ni     -72.15991217      -3.15770426      -0.00000000 snap500
Ni     -64.46707020      -3.10562515      -0.00000000 snap500
Ni     -56.42079972      -3.19988815      -0.00000000 snap500
Ni     -48.79228404      -3.14784388      -0.00000000 snap500
Ni     -41.07732035      -3.13517260      -0.00000000 snap500
Cr     -33.24996850      -3.12950336      -0.00000000 snap500
Ni     -25.44207430      -3.14748699      -0.00000000 snap500
Ni     -17.32020690      -3.25988058      -0.00000000 snap500
Ni      -9.51440084      -3.29907209      -0.00000000 snap500
Ni      -0.76907896      -2.15945974      -0.00000000 snap500
Ni     -74.48034940       0.02864961      -1.76000000 snap500
Ni     -66.79962459       0.03623005      -1.76000000 snap500
Ni     -58.75953578      -0.04896817      -1.76000000 snap500
Cr     -51.08184561      -0.02217606      -1.76000000 snap500
Cr     -43.41085515       0.02891833      -1.76000000 snap500
Ni     -35.54598498       0.00354199      -1.76000000 snap500
Ni     -27.70662915      -0.02640234      -1.76000000 snap500
Mo     -19.72121507      -0.07648817      -1.76000000 snap500
Ni     -11.90930649      -0.11055472      -1.76000000 snap500
Ni      -4.10853204      -0.15404851      -1.76000000 snap500
Cr     -71.39063967      -1.58266047      -1.76000000 snap500
Ni     -63.62632222      -1.54241922      -1.76000000 snap500
Fe     -55.67171227      -1.62607130      -1.76000000 snap500
Mo     -48.03765307      -1.57030858      -1.76000000 snap500
Mo     -40.24405371      -1.56774209      -1.76000000 snap500
Ni     -32.49618011      -1.55246799      -1.76000000 snap500
Ni     -24.62026985      -1.53788866      -1.76000000 snap500
Ni     -16.57769912      -1.67771824      -1.76000000 snap500
Ni      -8.74186276      -1.72486829      -1.76000000 snap500
Ni      -1.55862191      -0.52949230      -1.76000000 snap500
Mo     -76.08818171      -3.02694308      -1.76000000 snap500
Ni     -68.31795560      -3.14590761      -1.76000000 snap500
Ni     -60.41579991      -3.16913621      -1.76000000 snap500
Ni     -52.60325938      -3.18658731      -1.76000000 snap500
Ni     -44.95716455      -3.13033028      -1.76000000 snap500
Cr     -37.07617832      -3.17403686      -1.76000000 snap500
Ni     -29.32366289      -3.13841870      -1.76000000 snap500
Ni     -21.36381881      -3.17679123      -1.76000000 snap500
Fe     -13.52720852      -3.22218552      -1.76000000 snap500
Ni      -5.61220933      -3.28405294      -1.76000000 snap500
Ni     -72.91451558      -0.78937592      -0.00000000 snap500
Ni     -65.26155021      -0.71637223      -0.00000000 snap500
Ni     -57.17515336      -0.85411847      -0.00000000 snap500
Ni     -49.54707436      -0.80292143      -0.00000000 snap500
Ni     -41.87430041      -0.75545570      -0.00000000 snap500
Ni     -34.02193519      -0.77656953      -0.00000000 snap500
Ni     -26.14960634      -0.78051211      -0.00000000 snap500
Ni     -18.10332163      -0.90237927      -0.00000000 snap500
Ni     -10.28623918      -0.93878225      -0.00000000 snap500
Ni      -2.94943333      -1.30842414      -0.00000000 snap500
Ni     -77.64937380      -2.08385198      -0.00000000 snap500
Ni     -69.87242257      -2.36788152      -0.00000000 snap500
Ni     -62.01159765      -2.37197768      -0.00000000 snap500
Fe     -54.15672815      -2.40241913      -0.00000000 snap500
Ni     -46.50976072      -2.34519475      -0.00000000 snap500
Ni     -38.61320310      -2.41255543      -0.00000000 snap500
Ni     -30.94968958      -2.31686361      -0.00000000 snap500
Ni     -22.99276734      -2.33551066      -0.00000000 snap500
Ni     -15.05697388      -2.45141101      -0.00000000 snap500
Ni      -7.23174559      -2.52653314      -0.00000000 snap500
130
Lattice="0.0 0.0 -3.52 2e-16 -3.9354796403996297 1.7600000000000007 -102.32247065039037 0.0 -6.3e-15" Properties=species:S:1:pos:R:3:frame_label:S:1 pbc="T T T"
Ni    -100.71450849      -2.89823103      -0.00000000 snap1000
Ni     -92.84097335      -3.04073681      -0.00000000 snap1000
Ni     -85.19129390      -3.35620136      -0.00000000 snap1000
Ni     -97.63062042      -1.43221653      -0.00000000 snap1000
Ni     -89.78967627      -1.59468657      -0.00000000 snap1000
Ni     -81.98121318      -1.74756448      -0.00000000 snap1000
Cr    -102.25623783       0.32005216      -0.00000000 snap1000
Ni     -94.38462413       0.16175317      -0.00000000 snap1000
Ni     -86.74053466      -0.14721693      -0.00000000 snap1000
Ni     -99.18303309      -2.16615139      -1.76000000 snap1000
Ni     -91.31520753      -2.31481818      -1.76000000 snap1000
Mo     -83.58572558      -2.57164335      -1.76000000 snap1000
Mo     -96.01555683      -0.63054338      -1.76000000 snap1000
Ni     -88.26933464      -0.86708438      -1.76000000 snap1000
Mo     -80.05284284      -1.05376205      -1.76000000 snap1000
Ni     -98.42802347       0.17020080      -1.76000000 snap1000
Ni     -90.55578600       0.01410937      -1.76000000 snap1000
Ni     -82.72729292      -0.21183596      -1.76000000 snap1000
Ni     -95.17411997      -2.20858525      -0.00000000 snap1000
Fe     -87.51131774      -2.47592168      -0.00000000 snap1000
Ni     -79.78945066      -2.61093775      -0.00000000 snap1000
Cr     -99.93928064      -0.56428609      -0.00000000 snap1000
Ni     -92.07747936      -0.70883305      -0.00000000 snap1000
Ni     -84.40525846      -0.98866774      -0.00000000 snap1000
Ni     -96.83125126      -2.99511337      -1.76000000 snap1000
Ni     -89.02629664      -3.19860586      -1.76000000 snap1000
Ni     -81.16529772      -3.38944683      -1.76000000 snap1000
Ni    -101.45710317      -1.28601521      -1.76000000 snap1000
Fe     -93.58349289      -1.43806079      -1.76000000 snap1000
Ni     -85.97944438      -1.74861184      -1.76000000 snap1000
Ni     -77.09812342      -0.61886232      -1.76000000 snap1000
Ni     -69.21392600      -0.66478181      -1.76000000 snap1000
Ni     -61.13979166      -0.79500478      -1.76000000 snap1000
Fe     -53.29299416      -0.82879646      -1.76000000 snap1000
Ni     -45.59465429      -0.76786586      -1.76000000 snap1000
Ni     -38.00250915      -0.76241985      -1.76000000 snap1000
Ni     -30.19479117      -0.79662788      -1.76000000 snap1000
Ni     -22.09134686      -0.86142229      -1.76000000 snap1000
Ni     -14.21109424      -0.89647366      -1.76000000 snap1000
Ni      -6.38427068      -1.04356445      -1.76000000 snap1000
Mo     -73.87452786      -2.21559405      -1.76000000 snap1000
Ni     -65.99242400      -2.29145733      -1.76000000 snap1000
Ni     -57.90453647      -2.45775637      -1.76000000 snap1000
Ni     -50.20077955      -2.37409407      -1.76000000 snap1000
Ni     -42.56703334      -2.34542532      -1.76000000 snap1000
Ni     -34.96781766      -2.30786668      -1.76000000 snap1000
Ni     -26.94078261      -2.37801521      -1.76000000 snap1000
Ni     -18.82727954      -2.49372065      -1.76000000 snap1000
Ni     -10.96855467      -2.55102134      -1.76000000 snap1000
Mo      -2.82915903      -2.66958645      -1.76000000 snap1000
Ni     -78.60938503       0.18675811      -0.00000000 snap1000
Cr     -70.71036479       0.10463245      -0.00000000 snap1000
Ni     -62.73260500      -0.00879419      -0.00000000 snap1000
Ni     -54.85342956      -0.05027901      -0.00000000 snap1000
Ni     -47.15091997       0.00048620      -0.00000000 snap1000
Ni     -39.52252504       0.01660028      -0.00000000 snap1000
Mo     -31.80949836       0.03626349      -0.00000000 snap1000
Mo     -23.73516802      -0.04260066      -0.00000000 snap1000
Ni     -15.77263050      -0.08151611      -0.00000000 snap1000
Ni      -7.90996353      -0.23423065      -0.00000000 snap1000
Ni     -75.46023516      -1.35918160      -0.00000000 snap1000
Ni     -67.63220781      -1.46986462      -0.00000000 snap1000
Mo     -59.53457220      -1.62487462      -0.00000000 snap1000
Ni     -51.73020749      -1.60166645      -0.00000000 snap1000
Ni     -44.08119097      -1.55677943      -0.00000000 snap1000
Ni     -36.48771163      -1.53934139      -0.00000000 snap1000
Ni     -28.60026004      -1.58442213      -0.00000000 snap1000
Mo     -20.44777881      -1.68107549      -0.00000000 snap1000
Ni     -12.54986155      -1.72319084      -0.00000000 snap1000
Ni      -4.88618722      -1.88046568      -0.00000000 snap1000
Ni     -72.24199127      -3.06214266      -0.00000000 snap1000
Ni     -64.37763631      -3.13096158      -0.00000000 snap1000
Cr     -56.36898949      -3.21964844      -0.00000000 snap1000
Ni     -48.67512622      -3.15109769      -0.00000000 snap1000
Ni     -41.05260826      -3.13410140      -0.00000000 snap1000
Ni     -33.42593984      -3.07593442      -0.00000000 snap1000
Ni     -25.34747294      -3.15766159      -0.00000000 snap1000
Ni     -17.29230731      -3.25177303      -0.00000000 snap1000
Ni      -9.43722097      -3.36157032      -0.00000000 snap1000
Ni      -0.65189588      -2.04755848      -0.00000000 snap1000
Ni     -74.70315222       0.16966713      -1.76000000 snap1000
Mo     -66.81650145       0.08966366      -1.76000000 snap1000
Ni     -58.69482756      -0.06014241      -1.76000000 snap1000
Ni     -50.95639211      -0.02738258      -1.76000000 snap1000
Cr     -43.31472764       0.01492718      -1.76000000 snap1000
Ni     -35.72468633       0.04389489      -1.76000000 snap1000
Mo     -27.77410443      -0.01453294      -1.76000000 snap1000
Ni     -19.63099738      -0.11421216      -1.76000000 snap1000
Ni     -11.74828676      -0.19687951      -1.76000000 snap1000
Ni      -4.05332076      -0.24695139      -1.76000000 snap1000
Ni     -71.47760657      -1.47646453      -1.76000000 snap1000
Mo     -63.54913901      -1.57143840      -1.76000000 snap1000
Ni     -55.61374251      -1.64010075      -1.76000000 snap1000
Ni     -47.91501646      -1.56358019      -1.76000000 snap1000
Ni     -40.27960542      -1.55840344      -1.76000000 snap1000
Ni     -32.63828721      -1.52714560      -1.76000000 snap1000
Ni     -24.55326956      -1.60684799      -1.76000000 snap1000
Cr     -16.53962409      -1.66489032      -1.76000000 snap1000
Ni      -8.67131534      -1.79758986      -1.76000000 snap1000
Ni      -1.41889290      -0.37290409      -1.76000000 snap1000
Ni     -76.28093342      -2.96710825      -1.76000000 snap1000
Ni     -68.43397177      -3.01964451      -1.76000000 snap1000
Ni     -60.35269706      -3.18841339      -1.76000000 snap1000
Fe     -52.51829127      -3.18537945      -1.76000000 snap1000
Fe     -44.84191543      -3.13960783      -1.76000000 snap1000
Ni     -37.24264952      -3.11829598      -1.76000000 snap1000
Ni     -29.38822041      -3.13093841      -1.76000000 snap1000
Ni     -21.27868237      -3.24319333      -1.76000000 snap1000
Mo     -13.37528450      -3.27594121      -1.76000000 snap1000
Ni      -5.57024967      -3.40629590      -1.76000000 snap1000
Ni     -73.02630932      -0.65695768      -0.00000000 snap1000
Ni     -65.18438712      -0.74366774      -0.00000000 snap1000
Ni     -57.13320283      -0.86450407      -0.00000000 snap1000
Cr     -49.44033246      -0.79636079      -0.00000000 snap1000
Ni     -41.81575534      -0.76094061      -0.00000000 snap1000
Ni     -34.20770262      -0.72823485      -0.00000000 snap1000
Ni     -26.15130638      -0.83003258      -0.00000000 snap1000
Ni     -18.04591266      -0.90664836      -0.00000000 snap1000
Cr     -10.21649001      -0.99214564      -0.00000000 snap1000
Ni      -2.74373241      -1.09427823      -0.00000000 snap1000
Cr     -77.65173176      -2.13224087      -0.00000000 snap1000
Ni     -69.96419654      -2.25231130      -0.00000000 snap1000
Ni     -61.94026732      -2.39867290      -0.00000000 snap1000
Ni     -54.08292862      -2.41115621      -0.00000000 snap1000
Ni     -46.37336835      -2.35171520      -0.00000000 snap1000
Ni     -38.76335224      -2.34204339      -0.00000000 snap1000
Ni     -30.98602311      -2.33820122      -0.00000000 snap1000
Ni     -22.90141149      -2.41420390      -0.00000000 snap1000
Ni     -15.01046841      -2.42850809      -0.00000000 snap1000
Cr      -7.13999194      -2.61997498      -0.00000000 snap1000
130
Lattice="0.0 0.0 -3.52 2e-16 -3.9354796403996297 1.7600000000000007 -102.32247065039037 0.0 -6.3e-15" Properties=species:S:1:pos:R:3:frame_label:S:1 pbc="T T T"
Ni    -100.66278574      -2.85402997      -0.00000000 final
Ni     -92.85147644      -3.05380017      -0.00000000 final
Ni     -85.22283604      -3.35302013      -0.00000000 final
Ni     -97.64027192      -1.41844955      -0.00000000 final
Ni     -89.79451598      -1.58627261      -0.00000000 final
Ni     -82.00813565      -1.74660206      -0.00000000 final
Ni    -102.24694507       0.34659606      -0.00000000 final
Ni     -94.39999182       0.15228416      -0.00000000 final
Ni     -86.77627278      -0.13682885      -0.00000000 final
Ni     -99.15825727      -2.13048321      -1.76000000 final
Ni     -91.30450139      -2.33149100      -1.76000000 final
Ni     -83.61499091      -2.56929682      -1.76000000 final
Mo     -96.00533332      -0.63019891      -1.76000000 final
Cr     -88.28669634      -0.86546001      -1.76000000 final
Mo     -80.07654653      -1.04801304      -1.76000000 final
Ni     -98.40061916       0.19202561      -1.76000000 final
Ni     -90.54579689       0.02033459      -1.76000000 final
Mo     -82.75818992      -0.20992713      -1.76000000 final
Ni     -95.18974622      -2.21194799      -0.00000000 final
Ni     -87.53382851      -2.47748115      -0.00000000 final
Ni     -79.81280696      -2.60533369      -0.00000000 final
Cr     -99.92155559      -0.51830501      -0.00000000 final
Ni     -92.08710067      -0.72158758      -0.00000000 final
Ni     -84.43244216      -0.98493408      -0.00000000 final
Ni     -96.84341112      -2.98167931      -1.76000000 final
Ni     -89.02978311      -3.19466491      -1.76000000 final
Ni     -81.19256878      -3.38589046      -1.76000000 final
Ni    -101.42575338      -1.26015279      -1.76000000 final
Cr     -93.61607920      -1.45905043      -1.76000000 final
Ni     -86.00311747      -1.74259204      -1.76000000 final
Ni     -77.11259780      -0.59721200      -1.76000000 final
Ni     -69.20853404      -0.67961415      -1.76000000 final
Ni     -61.22764268      -0.76886909      -1.76000000 final
Ni     -53.32684517      -0.83557289      -1.76000000 final
Cr     -45.53369464      -0.79247684      -1.76000000 final
Ni     -37.94071897      -0.72496558      -1.76000000 final
Ni     -30.06789396      -0.79826508      -1.76000000 final
Ni     -22.17367503      -0.83573737      -1.76000000 final
Ni     -14.27886494      -0.95291121      -1.76000000 final
Cr      -6.39566150      -1.03604005      -1.76000000 final
Mo     -73.88151126      -2.19869961      -1.76000000 final
Ni     -65.99923144      -2.30597830      -1.76000000 final
Mo     -57.96892921      -2.41033087      -1.76000000 final
Ni     -50.08965726      -2.44554066      -1.76000000 final
Ni     -42.51648145      -2.33267136      -1.76000000 final
Ni     -34.86384928      -2.28932335      -1.76000000 final
Ni     -26.94627666      -2.38576700      -1.76000000 final
Ni     -18.92233962      -2.48995845      -1.76000000 final
Ni     -11.00976490      -2.58086612      -1.76000000 final
Mo      -2.59820118      -2.74927164      -1.76000000 final
Ni     -78.62675302       0.20214660      -0.00000000 final
Ni     -70.71720569       0.11588397      -0.00000000 final
Mo     -62.86828466       0.04258010      -0.00000000 final
Cr     -54.89394925      -0.03081829      -0.00000000 final
Ni     -47.08778093      -0.02288229      -0.00000000 final
Fe     -39.46761723       0.05682757      -0.00000000 final
Ni     -31.69375444       0.02870986      -0.00000000 final
Ni     -23.71631860      -0.05912591      -0.00000000 final
Ni     -15.85024789      -0.13204125      -0.00000000 final
Ni      -7.91830892      -0.23588457      -0.00000000 final
Ni     -75.47395626      -1.33987071      -0.00000000 final
Ni     -67.65144668      -1.49433882      -0.00000000 final
Ni     -59.60466139      -1.60086724      -0.00000000 final
Ni     -51.67971742      -1.64578275      -0.00000000 final
Ni     -44.02880852      -1.56421039      -0.00000000 final
Cr     -36.38662063      -1.51525426      -0.00000000 final
Ni     -28.52478189      -1.58104611      -0.00000000 final
Mo     -20.55255237      -1.66070498      -0.00000000 final
Ni     -12.61008489      -1.77349712      -0.00000000 final
Ni      -4.91712191      -1.89817541      -0.00000000 final
Ni     -72.25865166      -3.03776470      -0.00000000 final
Ni     -64.43008662      -3.10203016      -0.00000000 final
Ni     -56.40346948      -3.19638207      -0.00000000 final
Fe     -48.59069589      -3.20349036      -0.00000000 final
Ni     -41.00827325      -3.10822973      -0.00000000 final
Mo     -33.32326584      -3.06150096      -0.00000000 final
Ni     -25.29747056      -3.19965739      -0.00000000 final
Mo     -17.37532584      -3.26810010      -0.00000000 final
Fe      -9.48059331      -3.37336257      -0.00000000 final
Ni      -0.63394456      -2.03882549      -0.00000000 final
Ni     -74.72001480       0.18951429      -1.76000000 final
Mo     -66.82519796       0.06389055      -1.76000000 final
Ni     -58.78780346      -0.03957995      -1.76000000 final
Ni     -50.88005477      -0.09394240      -1.76000000 final
Ni     -43.27245539       0.02120063      -1.76000000 final
Ni     -35.62180261       0.07170644      -1.76000000 final
Ni     -27.74468935       0.00003319      -1.76000000 final
Ni     -19.72637352      -0.10060847      -1.76000000 final
Ni     -11.81038409      -0.22426250      -1.76000000 final
Ni      -4.04128063      -0.23905404      -1.76000000 final
Ni     -71.47403062      -1.46817844      -1.76000000 final
Ni     -63.66098650      -1.51779834      -1.76000000 final
Ni     -55.64289451      -1.61332899      -1.76000000 final
Ni     -47.83084361      -1.61379344      -1.76000000 final
Ni     -40.22965867      -1.52553757      -1.76000000 final
Ni     -32.52493668      -1.52676444      -1.76000000 final
Ni     -24.49460137      -1.64934144      -1.76000000 final
Ni     -16.62291421      -1.69974463      -1.76000000 final
Ni      -8.71262444      -1.79724769      -1.76000000 final
Ni      -1.43612955      -0.39476372      -1.76000000 final
Ni     -76.29581998      -2.94420992      -1.76000000 final
Ni     -68.44396464      -3.02394377      -1.76000000 final
Ni     -60.41506986      -3.15173324      -1.76000000 final
Mo     -52.48972854      -3.20835651      -1.76000000 final
Ni     -44.77901755      -3.15600010      -1.76000000 final
Ni     -37.14992050      -3.07870226      -1.76000000 final
Cr     -29.28189167      -3.15989077      -1.76000000 final
Ni     -21.37730790      -3.21990259      -1.76000000 final
Ni     -13.43714035      -3.33228928      -1.76000000 final
Ni      -5.58639622      -3.41900407      -1.76000000 final
Ni     -73.04674624      -0.64133354      -0.00000000 final
Ni     -65.20688502      -0.75115949      -0.00000000 final
Ni     -57.17961240      -0.85454241      -0.00000000 final
Ni     -49.34718699      -0.85182308      -0.00000000 final
Ni     -41.76660046      -0.74052458      -0.00000000 final
Ni     -34.10136954      -0.71745896      -0.00000000 final
Mo     -26.11479910      -0.82541142      -0.00000000 final
Ni     -18.13583044      -0.91556852      -0.00000000 final
Fe     -10.23499872      -1.02091153      -0.00000000 final
Ni      -2.78178604      -1.18018550      -0.00000000 final
Cr     -77.67280052      -2.11167290      -0.00000000 final
Cr     -69.96923700      -2.25063028      -0.00000000 final
Ni     -62.03877413      -2.32545913      -0.00000000 final
Ni     -54.10601420      -2.38249403      -0.00000000 final
Ni     -46.33135134      -2.38450296      -0.00000000 final
Ni     -38.70105169      -2.30455644      -0.00000000 final
Ni     -30.86954715      -2.34318436      -0.00000000 final
Ni     -22.95595682      -2.42189126      -0.00000000 final
Ni     -15.07831507      -2.48570613      -0.00000000 final
Fe      -7.19055380      -2.61027172      -0.00000000 final
