130
Lattice="0.0 0.0 -3.52 2e-16 -3.9354796403996297 1.7600000000000007 -102.32247065039037 0.0 -6.3e-15" Properties=species:S:1:pos:R:3:frame_label:S:1 pbc="T T T"
Mo    -100.68421613      -3.12817769      -0.00000000 random
Cr     -92.83912035      -3.15220828      -0.00000000 random
Ni     -85.08944627      -3.14675678      -0.00000000 random
Ni     -97.49635799      -1.56976201      -0.00000000 random
Cr     -89.74084859      -1.57280813      -0.00000000 random
Ni     -82.01308271      -1.56713148      -0.00000000 random
Ni    -102.32334456      -0.01198342      -0.00000000 random
Ni     -94.38747173      -0.00509226      -0.00000000 random
Cr     -86.64459173       0.00509226      -0.00000000 random
Ni     -99.01898075      -2.36834816      -1.76000000 random
Ni     -91.29121487      -2.36267151      -1.76000000 random
Ni     -83.53570547      -2.36571763      -1.76000000 random
Ni     -95.94261719      -0.78872286      -1.76000000 random
Ni     -88.19294311      -0.78327136      -1.76000000 random
Ni     -80.34784733      -0.80730195      -1.76000000 random
Ni     -98.28548225       0.00638148      -1.76000000 random
Ni     -90.51603173       0.00000000      -1.76000000 random
Ni     -82.74658121      -0.00638148      -1.76000000 random
Ni     -95.16397428      -2.36492959      -0.00000000 random
Cr     -87.41715697      -2.35689535      -0.00000000 random
Ni     -79.80510840      -2.38181110      -0.00000000 random
Ni     -99.83824749      -0.74628196      -0.00000000 random
Ni     -92.06429434      -0.79030318      -0.00000000 random
Ni     -84.32128036      -0.78349434      -0.00000000 random
Ni     -96.71078310      -3.15198530      -1.76000000 random
Ni     -88.96776911      -3.14517646      -1.76000000 random
Ni     -81.19381597      -3.18919768      -1.76000000 random
Ni    -101.22695506      -1.55366854      -1.76000000 random
Mo     -93.61490649      -1.57858429      -1.76000000 random
Ni     -85.86808917      -1.57055005      -1.76000000 random
Ni     -77.06870959      -0.80694054      -1.76000000 random
Ni     -69.19580674      -0.77997460      -1.76000000 random
Fe     -61.38003842      -0.78579651      -1.76000000 random
Ni     -53.52214389      -0.78706552      -1.76000000 random
Mo     -45.65156116      -0.78709580      -1.76000000 random
Ni     -37.78060477      -0.78709594      -1.76000000 random
Ni     -29.90966339      -0.78709706      -1.76000000 random
Ni     -22.04074162      -0.78727425      -1.76000000 random
Ni     -14.19773857      -0.79019384      -1.76000000 random
Ni      -6.39440802      -0.79036345      -1.76000000 random
Ni     -73.87450081      -2.36470172      -1.76000000 random
Ni     -66.07520422      -2.35684258      -1.76000000 random
Ni     -58.24089081      -2.36090943      -1.76000000 random
Ni     -50.37408761      -2.36128415      -1.76000000 random
Ni     -42.50317956      -2.36128776      -1.76000000 random
Ni     -34.63222203      -2.36128784      -1.76000000 random
Ni     -26.76140607      -2.36129878      -1.76000000 random
Ni     -18.89818089      -2.36202534      -1.76000000 random
Ni     -11.07228666      -2.36721621      -1.76000000 random
Ni      -3.30869562      -2.36886856      -1.76000000 random
Mo     -78.70871890       0.01198342      -0.00000000 random
Ni     -70.75281085       0.00748857      -0.00000000 random
Ni     -62.94670336       0.00210653      -0.00000000 random
Fe     -55.09579383       0.00007700      -0.00000000 random
Ni     -47.22574908       0.00000036      -0.00000000 random
Ni     -39.35479640       0.00000000      -0.00000000 random
Ni     -31.48384373      -0.00000036      -0.00000000 random
Mo     -23.61379897      -0.00007700      -0.00000000 random
Ni     -15.76288945      -0.00210653      -0.00000000 random
Ni      -7.95678196      -0.00748857      -0.00000000 random
Ni     -75.40089718      -1.56661108      -0.00000000 random
Ni     -67.63730615      -1.56826343      -0.00000000 random
Ni     -59.81141192      -1.57345430      -0.00000000 random
Ni     -51.94818674      -1.57418086      -0.00000000 random
Ni     -44.07737078      -1.57419180      -0.00000000 random
Mo     -36.20641324      -1.57419188      -0.00000000 random
Cr     -28.33550520      -1.57419549      -0.00000000 random
Mo     -20.46870199      -1.57457021      -0.00000000 random
Ni     -12.63438859      -1.57863706      -0.00000000 random
Ni      -4.83509200      -1.57077792      -0.00000000 random
Mo     -72.31518479      -3.14511619      -0.00000000 random
Cr     -64.51185424      -3.14528580      -0.00000000 random
Ni     -56.66885119      -3.14820539      -0.00000000 random
Mo     -48.79992942      -3.14838258      -0.00000000 random
Ni     -40.92898804      -3.14838370      -0.00000000 random
Mo     -33.05803165      -3.14838384      -0.00000000 random
Ni     -25.18744892      -3.14841412      -0.00000000 random
Ni     -17.32955438      -3.14968313      -0.00000000 random
Ni      -9.51378607      -3.15550504      -0.00000000 random
Ni      -1.64088322      -3.12853910      -0.00000000 random
Ni     -74.66571632      -0.00561005      -1.76000000 random
Ni     -66.85646447       0.00497554      -1.76000000 random
Ni     -59.02637329       0.00053323      -1.76000000 random
Fe     -51.16114832       0.00000638      -1.76000000 random
Ni     -43.29027523       0.00000004      -1.76000000 random
Ni     -35.41931758      -0.00000004      -1.76000000 random
Mo     -27.54844449      -0.00000638      -1.76000000 random
Cr     -19.68321952      -0.00053323      -1.76000000 random
Ni     -11.85312834      -0.00497554      -1.76000000 random
Ni      -4.04387649       0.00561005      -1.76000000 random
Ni     -71.53308978      -1.56854538      -1.76000000 random
Mo     -63.72944384      -1.57161596      -1.76000000 random
Ni     -55.88242044      -1.57407356      -1.76000000 random
Ni     -48.01284078      -1.57419122      -1.76000000 random
Ni     -40.14189223      -1.57419185      -1.76000000 random
Ni     -32.27093718      -1.57419207      -1.76000000 random
Ni     -24.40057094      -1.57424087      -1.76000000 random
Ni     -16.54598334      -1.57587304      -1.76000000 random
Ni      -8.73356633      -1.58145705      -1.76000000 random
Ni      -1.09856287      -1.55406655      -1.76000000 random
Ni     -76.22147516      -3.18885388      -1.76000000 random
Fe     -68.41614100      -3.14135486      -1.76000000 random
Ni     -60.59596359      -3.14739015      -1.76000000 random
Ni     -52.73519090      -3.14836521      -1.76000000 random
Cr     -44.86446613      -3.14838363      -1.76000000 random
Ni     -36.99350898      -3.14838373      -1.76000000 random
Ni     -29.12257996      -3.14838575      -1.76000000 random
Ni     -21.25456414      -3.14864630      -1.76000000 random
Ni     -13.41571760      -3.15208440      -1.76000000 random
Mo      -5.62315349      -3.15323213      -1.76000000 random
Ni     -73.08643932      -0.78224751      -0.00000000 random
Ni     -65.29387520      -0.78339524      -0.00000000 random
Ni     -57.45502866      -0.78683334      -0.00000000 random
Cr     -49.58701285      -0.78709389      -0.00000000 random
Fe     -41.71608383      -0.78709591      -0.00000000 random
Ni     -33.84512668      -0.78709601      -0.00000000 random
Ni     -25.97440190      -0.78711443      -0.00000000 random
Ni     -18.11362921      -0.78808949      -0.00000000 random
Ni     -10.29345181      -0.79412478      -0.00000000 random
Ni      -2.48811765      -0.74662576      -0.00000000 random
Ni     -77.61102994      -2.38141309      -0.00000000 random
Ni     -69.97602648      -2.35402259      -0.00000000 random
Ni     -62.16360947      -2.35960660      -0.00000000 random
Ni     -54.30902187      -2.36123877      -0.00000000 random
Ni     -46.43865562      -2.36128757      -0.00000000 random
Ni     -38.56770058      -2.36128779      -0.00000000 random
Ni     -30.69675203      -2.36128842      -0.00000000 random
Ni     -22.82717237      -2.36140608      -0.00000000 random
Ni     -14.98014897      -2.36386368      -0.00000000 random
Cr      -7.17650302      -2.36693426      -0.00000000 random
130
Lattice="0.0 0.0 -3.52 2e-16 -3.9354796403996297 1.7600000000000007 -102.32247065039037 0.0 -6.3e-15" Properties=species:S:1:pos:R:3:frame_label:S:1 pbc="T T T"
Mo    -101.05489214      -2.68852013      -0.00000000 snap500
Ni     -92.89296491      -3.05333655      -0.00000000 snap500
Ni     -85.09826226      -3.11928897      -0.00000000 snap500
Cr     -97.44760921      -1.32975429      -0.00000000 snap500
Ni     -89.83560268      -1.54505800      -0.00000000 snap500
Ni     -82.09954477      -1.64532420      -0.00000000 snap500
Ni    -102.35684685      -0.27557527      -0.00000000 snap500
Ni     -94.40025725       0.15115598      -0.00000000 snap500
Ni     -86.62461078       0.08097124      -0.00000000 snap500
Ni     -98.95655921      -2.08709230      -1.76000000 snap500
Cr     -91.36663751      -2.30005518      -1.76000000 snap500
Ni     -83.59730298      -2.39837774      -1.76000000 snap500
Ni     -95.92350224      -0.58464830      -1.76000000 snap500
Mo     -88.22997731      -0.72807217      -1.76000000 snap500
Mo     -80.35394194      -0.92014185      -1.76000000 snap500
Ni     -98.22341062       0.27579507      -1.76000000 snap500
Ni     -90.61141576       0.04595382      -1.76000000 snap500
Ni     -82.83108218      -0.07125186      -1.76000000 snap500
Ni     -95.16022742      -2.18533059      -0.00000000 snap500
Ni     -87.41546987      -2.29514427      -0.00000000 snap500
Ni     -79.87248803      -2.46664083      -0.00000000 snap500
Ni     -99.71135199      -0.40947517      -0.00000000 snap500
Ni     -92.13625012      -0.70326411      -0.00000000 snap500
Cr     -84.35940340      -0.78117574      -0.00000000 snap500
Ni     -96.68858375      -2.93829206      -1.76000000 snap500
Ni     -89.04969228      -3.09716850      -1.76000000 snap500
Ni     -81.29680890      -3.27382647      -1.76000000 snap500
Ni    -101.04480496      -1.10920859      -1.76000000 snap500
Fe     -93.63589210      -1.45939708      -1.76000000 snap500
Ni     -85.83823156      -1.51478138      -1.76000000 snap500
Cr     -77.10656397      -0.78252957      -1.76000000 snap500
Cr     -69.11759811      -0.78823495      -1.76000000 snap500
Ni     -61.33463903      -0.82617985      -1.76000000 snap500
Fe     -53.74624594      -0.72616162      -1.76000000 snap500
Mo     -45.79865294      -0.75871968      -1.76000000 snap500
Ni     -37.85887710      -0.76521820      -1.76000000 snap500
Ni     -29.70330907      -0.85644574      -1.76000000 snap500
Ni     -21.87230937      -0.85448282      -1.76000000 snap500
Ni     -14.17031784      -0.88082961      -1.76000000 snap500
Ni      -6.43682758      -0.86390504      -1.76000000 snap500
Ni     -73.87322892      -2.33771776      -1.76000000 snap500
Ni     -66.04238343      -2.36753305      -1.76000000 snap500
Fe     -58.29313827      -2.35906972      -1.76000000 snap500
Ni     -50.68552502      -2.24630548      -1.76000000 snap500
Ni     -42.52671742      -2.38804713      -1.76000000 snap500
Fe     -34.57550994      -2.32159193      -1.76000000 snap500
Cr     -26.64662147      -2.38383190      -1.76000000 snap500
Ni     -18.76771741      -2.46393719      -1.76000000 snap500
Ni     -11.09134345      -2.44302117      -1.76000000 snap500
Ni      -3.16472427      -2.58878508      -1.76000000 snap500
Ni     -78.73807477       0.12585787      -0.00000000 snap500
Ni     -70.65525761      -0.02864733      -0.00000000 snap500
Ni     -62.83865383      -0.05629039      -0.00000000 snap500
Ni     -55.25339139       0.03719133      -0.00000000 snap500
Ni     -47.43591266       0.05569117      -0.00000000 snap500
Ni     -39.34108198      -0.01209959      -0.00000000 snap500
Ni     -31.34258156      -0.01615733      -0.00000000 snap500
Mo     -23.52435147      -0.03979630      -0.00000000 snap500
Ni     -15.70690609      -0.10117897      -0.00000000 snap500
Ni      -7.98826992      -0.06940360      -0.00000000 snap500
Ni     -75.40232329      -1.55663251      -0.00000000 snap500
Ni     -67.60693571      -1.56507098      -0.00000000 snap500
Ni     -59.81197588      -1.59462604      -0.00000000 snap500
Ni     -52.23777693      -1.48701282      -0.00000000 snap500
Ni     -44.15855948      -1.57099671      -0.00000000 snap500
Mo     -36.25077790      -1.53046384      -0.00000000 snap500
Ni     -28.15825895      -1.61928623      -0.00000000 snap500
Cr     -20.29556118      -1.67332667      -0.00000000 snap500
Fe     -12.63393306      -1.66333950      -0.00000000 snap500
Mo      -4.78764278      -1.69607822      -0.00000000 snap500
Ni     -72.26773944      -3.14719706      -0.00000000 snap500
Ni     -64.39523021      -3.18200698      -0.00000000 snap500
Ni     -56.77675075      -3.12598306      -0.00000000 snap500
Ni     -49.06951265      -3.06065707      -0.00000000 snap500
Ni     -40.89837110      -3.19070496      -0.00000000 snap500
Mo     -32.95844597      -3.11439508      -0.00000000 snap500
Ni     -25.10755045      -3.17110493      -0.00000000 snap500
Ni     -17.23912131      -3.25020565      -0.00000000 snap500
Ni      -9.54068917      -3.22409030      -0.00000000 snap500
Cr      -1.57213063      -3.43421371      -0.00000000 snap500
Ni     -74.67416852       0.00774083      -1.76000000 snap500
Ni     -66.83043710       0.02086658      -1.76000000 snap500
Ni     -59.05163148      -0.00107318      -1.76000000 snap500
Ni     -51.46026380       0.09812861      -1.76000000 snap500
Ni     -43.35129428      -0.01341884      -1.76000000 snap500
Ni     -35.38844925       0.04977290      -1.76000000 snap500
Ni     -27.41312391      -0.03980082      -1.76000000 snap500
Ni     -19.52855153      -0.10506140      -1.76000000 snap500
Ni     -11.86424366      -0.08225430      -1.76000000 snap500
Ni      -3.94718455      -0.15907571      -1.76000000 snap500
Ni     -71.44580751      -1.58386569      -1.76000000 snap500
Ni     -63.60563515      -1.64877689      -1.76000000 snap500
Ni     -56.01367748      -1.55892562      -1.76000000 snap500
Ni     -48.24314683      -1.49978853      -1.76000000 snap500
Ni     -40.11784277      -1.59734620      -1.76000000 snap500
Ni     -32.16608170      -1.57435908      -1.76000000 snap500
Ni     -24.32267552      -1.58457873      -1.76000000 snap500
Ni     -16.47079862      -1.67450641      -1.76000000 snap500
Mo      -8.75999392      -1.65334846      -1.76000000 snap500
Ni      -0.85934458      -1.92337352      -1.76000000 snap500
Ni     -76.20067785      -3.15486317      -1.76000000 snap500
Ni     -68.36334994      -3.14362530      -1.76000000 snap500
Ni     -60.57002205      -3.16323405      -1.76000000 snap500
Ni     -52.99397106      -3.06327539      -1.76000000 snap500
Ni     -44.97843711      -3.12882841      -1.76000000 snap500
Ni     -37.03805992      -3.09648668      -1.76000000 snap500
Ni     -28.92895900      -3.19676993      -1.76000000 snap500
Ni     -21.07856545      -3.24820653      -1.76000000 snap500
Ni     -13.40356144      -3.24053204      -1.76000000 snap500
Ni      -5.63626663      -3.25430826      -1.76000000 snap500
Mo     -73.07801385      -0.77695159      -0.00000000 snap500
Mo     -65.22495878      -0.80776651      -0.00000000 snap500
Ni     -57.53982103      -0.78198879      -0.00000000 snap500
Mo     -49.88695179      -0.69206533      -0.00000000 snap500
Mo     -41.70068029      -0.81748673      -0.00000000 snap500
Ni     -33.77508757      -0.78385971      -0.00000000 snap500
Ni     -25.88967189      -0.81334139      -0.00000000 snap500
Cr     -18.00006106      -0.88922139      -0.00000000 snap500
Ni     -10.32473062      -0.86835362      -0.00000000 snap500
Ni      -2.35601961      -1.01831432      -0.00000000 snap500
Ni     -77.67183134      -2.31339538      -0.00000000 snap500
Ni     -69.88317961      -2.37697491      -0.00000000 snap500
Ni     -62.08237954      -2.41266926      -0.00000000 snap500
Ni     -54.49367698      -2.31201751      -0.00000000 snap500
Ni     -46.61725867      -2.32317269      -0.00000000 snap500
Ni     -38.57744221      -2.34691606      -0.00000000 snap500
Cr     -30.49589537      -2.38910652      -0.00000000 snap500
Ni     -22.69889930      -2.41343145      -0.00000000 snap500
Ni     -14.93952350      -2.45943552      -0.00000000 snap500
Ni      -7.25987832      -2.44419994      -0.00000000 snap500
130
Lattice="0.0 0.0 -3.52 2e-16 -3.9354796403996297 1.7600000000000007 -102.32247065039037 0.0 -6.3e-15" Properties=species:S:1:pos:R:3:frame_label:S:1 pbc="T T T"
Mo    -100.97508581      -2.75602724      -0.00000000 snap1000
Ni     -92.88557342      -2.99175217      -0.00000000 snap1000
Ni     -85.07246027      -3.14969137      -0.00000000 snap1000
Ni     -97.44495537      -1.24677158      -0.00000000 snap1000
Ni     -89.86279533      -1.53811957      -0.00000000 snap1000
Ni     -82.04836835      -1.62754798      -0.00000000 snap1000
Ni    -102.37086518      -0.29913791      -0.00000000 snap1000
Ni     -94.43778912       0.20305443      -0.00000000 snap1000
Ni     -86.64929199       0.01819687      -0.00000000 snap1000
Ni     -98.98048759      -2.03468557      -1.76000000 snap1000
Ni     -91.37412536      -2.25677938      -1.76000000 snap1000
Ni     -83.56149577      -2.40481849      -1.76000000 snap1000
Cr     -95.94758702      -0.51979667      -1.76000000 snap1000
Ni     -88.29983342      -0.76459774      -1.76000000 snap1000
Mo     -80.32341536      -0.86735809      -1.76000000 snap1000
Ni     -98.25070184       0.33848446      -1.76000000 snap1000
Cr     -90.62635330       0.06965501      -1.76000000 snap1000
Ni     -82.76852385      -0.06393840      -1.76000000 snap1000
Ni     -95.18696326      -2.12644458      -0.00000000 snap1000
Mo     -87.46395853      -2.34143626      -0.00000000 snap1000
Ni     -79.80161367      -2.41045492      -0.00000000 snap1000
Ni     -99.75729153      -0.40153921      -0.00000000 snap1000
Ni     -92.12874512      -0.64702020      -0.00000000 snap1000
Ni     -84.32253669      -0.80237518      -0.00000000 snap1000
Ni     -96.69548363      -2.85800163      -1.76000000 snap1000
Ni     -89.10235896      -3.14729019      -1.76000000 snap1000
Ni     -81.24679490      -3.23640810      -1.76000000 snap1000
Cr    -101.07873245      -1.17731200      -1.76000000 snap1000
Ni     -93.67912752      -1.38388109      -1.76000000 snap1000
Ni     -85.85211660      -1.54920783      -1.76000000 snap1000
Mo     -77.03563925      -0.78556793      -1.76000000 snap1000
Ni     -69.28617709      -0.75395739      -1.76000000 snap1000
Ni     -61.30525381      -0.82635081      -1.76000000 snap1000
Ni     -53.57963446      -0.74982528      -1.76000000 snap1000
Ni     -45.75366747      -0.73386002      -1.76000000 snap1000
Ni     -37.79939849      -0.74656641      -1.76000000 snap1000
Ni     -29.88994562      -0.82651258      -1.76000000 snap1000
Ni     -21.93841971      -0.86082669      -1.76000000 snap1000
Ni     -14.05749933      -0.91813404      -1.76000000 snap1000
Ni      -6.41127481      -0.94208508      -1.76000000 snap1000
Cr     -73.82195443      -2.37350921      -1.76000000 snap1000
Ni     -66.10334898      -2.35860752      -1.76000000 snap1000
Ni     -58.29425193      -2.33440709      -1.76000000 snap1000
Ni     -50.48249542      -2.29780550      -1.76000000 snap1000
Mo     -42.53344616      -2.35078404      -1.76000000 snap1000
Ni     -34.53519052      -2.39350832      -1.76000000 snap1000
Ni     -26.73415570      -2.41318402      -1.76000000 snap1000
Ni     -18.85258733      -2.40153615      -1.76000000 snap1000
Ni     -11.02123006      -2.46329243      -1.76000000 snap1000
Ni      -3.31497144      -2.57301402      -1.76000000 snap1000
Ni     -78.68619948       0.13068146      -0.00000000 snap1000
Ni     -70.78764878       0.01893932      -0.00000000 snap1000
Ni     -62.86345484      -0.04746794      -0.00000000 snap1000
Ni     -55.22104025       0.05218060      -0.00000000 snap1000
Ni     -47.41059573       0.07643270      -0.00000000 snap1000
Ni     -39.35805833       0.01333121      -0.00000000 snap1000
Ni     -31.41768258      -0.02764623      -0.00000000 snap1000
Ni     -23.47604172      -0.08521016      -0.00000000 snap1000
Ni     -15.61260156      -0.12602437      -0.00000000 snap1000
Fe      -7.94868846      -0.12296151      -0.00000000 snap1000
Ni     -75.31756472      -1.58687799      -0.00000000 snap1000
Ni     -67.73575013      -1.55119696      -0.00000000 snap1000
Fe     -59.78889694      -1.58130082      -0.00000000 snap1000
Ni     -51.99353841      -1.53571281      -0.00000000 snap1000
Ni     -44.15159691      -1.52518665      -0.00000000 snap1000
Mo     -36.17121740      -1.56463224      -0.00000000 snap1000
Ni     -28.33903934      -1.61002331      -0.00000000 snap1000
Ni     -20.40692009      -1.63104042      -0.00000000 snap1000
Cr     -12.52964099      -1.68508100      -0.00000000 snap1000
Fe      -4.88328177      -1.76566889      -0.00000000 snap1000
Ni     -72.30959085      -3.13974708      -0.00000000 snap1000
Ni     -64.48979523      -3.18077658      -0.00000000 snap1000
Ni     -56.78231073      -3.09361553      -0.00000000 snap1000
Ni     -48.97180024      -3.05683091      -0.00000000 snap1000
Ni     -40.91322740      -3.16490913      -0.00000000 snap1000
Ni     -32.96711356      -3.17316276      -0.00000000 snap1000
Ni     -25.06588151      -3.22164243      -0.00000000 snap1000
Mo     -17.24743081      -3.23356282      -0.00000000 snap1000
Ni      -9.46513711      -3.25774611      -0.00000000 snap1000
Mo      -1.66334130      -3.41468080      -0.00000000 snap1000
Ni     -74.60057351      -0.01600249      -1.76000000 snap1000
Mo     -66.91251856       0.01575520      -1.76000000 snap1000
Ni     -59.04552375       0.01062748      -1.76000000 snap1000
Ni     -51.23573016       0.03621822      -1.76000000 snap1000
Ni     -43.36166016       0.02029487      -1.76000000 snap1000
Ni     -35.33942968      -0.00298801      -1.76000000 snap1000
Ni     -27.55447428      -0.01975287      -1.76000000 snap1000
Ni     -19.64242783      -0.05229288      -1.76000000 snap1000
Ni     -11.77884560      -0.11090936      -1.76000000 snap1000
Ni      -4.08781703      -0.19833747      -1.76000000 snap1000
Ni     -71.55034440      -1.57576278      -1.76000000 snap1000
Mo     -63.67649816      -1.61746358      -1.76000000 snap1000
Ni     -56.00576687      -1.50394714      -1.76000000 snap1000
Ni     -48.20338962      -1.46206752      -1.76000000 snap1000
Ni     -40.12303970      -1.57346371      -1.76000000 snap1000
Cr     -32.22238297      -1.60306778      -1.76000000 snap1000
Ni     -24.26257034      -1.66817809      -1.76000000 snap1000
Ni     -16.40714753      -1.66858416      -1.76000000 snap1000
Ni      -8.70873809      -1.69644132      -1.76000000 snap1000
Ni      -0.91172913      -1.88395410      -1.76000000 snap1000
Ni     -76.12615342      -3.16445401      -1.76000000 snap1000
Ni     -68.52862683      -3.09147580      -1.76000000 snap1000
Ni     -60.55227699      -3.17343903      -1.76000000 snap1000
Ni     -52.78663903      -3.12821145      -1.76000000 snap1000
Ni     -44.95931256      -3.12492648      -1.76000000 snap1000
Ni     -37.00688841      -3.12835562      -1.76000000 snap1000
Cr     -29.09874233      -3.18065364      -1.76000000 snap1000
Ni     -21.16771783      -3.21288267      -1.76000000 snap1000
Ni     -13.30044080      -3.26964901      -1.76000000 snap1000
Ni      -5.64811771      -3.31831351      -1.76000000 snap1000
Ni     -73.06072361      -0.78899004      -0.00000000 snap1000
Ni     -65.29418435      -0.80119064      -0.00000000 snap1000
Ni     -57.54030434      -0.74615279      -0.00000000 snap1000
Cr     -49.72688718      -0.70500355      -0.00000000 snap1000
Ni     -41.70238940      -0.78262231      -0.00000000 snap1000
Ni     -33.73707841      -0.81677709      -0.00000000 snap1000
Mo     -25.90400336      -0.84936713      -0.00000000 snap1000
Ni     -18.06169697      -0.85423108      -0.00000000 snap1000
Ni     -10.26012576      -0.89817569      -0.00000000 snap1000
Ni      -2.50439322      -1.02428367      -0.00000000 snap1000
Ni     -77.59649394      -2.32138844      -0.00000000 snap1000
Cr     -70.03515841      -2.33410559      -0.00000000 snap1000
Ni     -62.07625833      -2.42162003      -0.00000000 snap1000
Mo     -54.40326304      -2.31731678      -0.00000000 snap1000
Mo     -46.56860152      -2.29507184      -0.00000000 snap1000
Ni     -38.58989711      -2.33593324      -0.00000000 snap1000
Ni     -30.66035869      -2.39521806      -0.00000000 snap1000
Fe     -22.68684598      -2.43907298      -0.00000000 snap1000
Fe     -14.81387247      -2.48491691      -0.00000000 snap1000
Cr      -7.17270789      -2.50334748      -0.00000000 snap1000
130
Lattice="0.0 0.0 -3.52 2e-16 -3.9354796403996297 1.7600000000000007 -102.32247065039037 0.0 -6.3e-15" Properties=species:S:1:pos:R:3:frame_label:S:1 pbc="T T T"
Mo    -100.86056894      -2.76309966      -0.00000000 final
Ni     -92.89557095      -2.97155807      -0.00000000 final
Ni     -85.12440726      -3.16383285      -0.00000000 final
Ni     -97.45820690      -1.28386877      -0.00000000 final
Ni     -89.89760864      -1.51898792      -0.00000000 final
Ni     -82.05618367      -1.71801205      -0.00000000 final
Ni    -102.36565999      -0.21275857      -0.00000000 final
Ni     -94.42799951       0.20619461      -0.00000000 final
Ni     -86.78727461       0.00013871      -0.00000000 final
Ni     -98.94293574      -2.04468623      -1.76000000 final
Cr     -91.39390921      -2.24453605      -1.76000000 final
Ni     -83.57753695      -2.41327776      -1.76000000 final
Cr     -95.96965095      -0.55140657      -1.76000000 final
Ni     -88.36216632      -0.76643254      -1.76000000 final
Mo     -79.89356578      -1.19753233      -1.76000000 final
Ni     -98.25643388       0.32149246      -1.76000000 final
Ni     -90.64509701       0.08571971      -1.76000000 final
Cr     -82.80201510      -0.12216985      -1.76000000 final
Ni     -95.20311891      -2.12911804      -0.00000000 final
Ni     -87.58700414      -2.36832505      -0.00000000 final
Ni     -80.00542597      -2.77809059      -0.00000000 final
Ni     -99.74279594      -0.42369573      -0.00000000 final
Ni     -92.14690407      -0.64120547      -0.00000000 final
Ni     -84.33096270      -0.79779584      -0.00000000 final
Ni     -96.70116472      -2.89164381      -1.76000000 final
Ni     -89.13877382      -3.10656444      -1.76000000 final
Ni     -81.33868244      -3.41117330      -1.76000000 final
Ni    -101.11495143      -1.19749616      -1.76000000 final
Ni     -93.65523142      -1.38982486      -1.76000000 final
Mo     -85.96953743      -1.57727888      -1.76000000 final
Ni     -77.12698243      -0.55699058      -1.76000000 final
Ni     -69.30791886      -0.77186279      -1.76000000 final
Ni     -61.44471927      -0.71059473      -1.76000000 final
Ni     -53.47940169      -0.79244800      -1.76000000 final
Ni     -45.66172009      -0.72163427      -1.76000000 final
Ni     -37.81190168      -0.76823067      -1.76000000 final
Ni     -29.90821232      -0.79491842      -1.76000000 final
Cr     -21.82960476      -0.90852495      -1.76000000 final
Ni     -14.15787371      -0.89160241      -1.76000000 final
Ni      -6.43239897      -0.97780176      -1.76000000 final
Ni     -73.84284972      -2.32448325      -1.76000000 final
Ni     -66.06919801      -2.35016104      -1.76000000 final
Ni     -58.22745376      -2.35828403      -1.76000000 final
Cr     -50.38632439      -2.30773132      -1.76000000 final
Mo     -42.47493712      -2.34921848      -1.76000000 final
Ni     -34.58189210      -2.36458755      -1.76000000 final
Ni     -26.62928833      -2.39950830      -1.76000000 final
Ni     -18.76197155      -2.46681241      -1.76000000 final
Cr     -11.08991858      -2.47545771      -1.76000000 final
Ni      -3.35834838      -2.53882712      -1.76000000 final
Ni     -78.69656434       0.28948980      -0.00000000 final
Ni     -70.81399433       0.00394319      -0.00000000 final
Ni     -62.98952092       0.03973462      -0.00000000 final
Ni     -55.12457678       0.00761220      -0.00000000 final
Ni     -47.30922988       0.08676301      -0.00000000 final
Cr     -39.33095107      -0.00264425      -0.00000000 final
Ni     -31.47919716       0.00052877      -0.00000000 final
Ni     -23.37304647      -0.13751833      -0.00000000 final
Ni     -15.68220821      -0.09797379      -0.00000000 final
Ni      -7.99409049      -0.16969770      -0.00000000 final
Ni     -75.42228520      -1.45256342      -0.00000000 final
Ni     -67.71868409      -1.55166692      -0.00000000 final
Mo     -59.83972226      -1.53131788      -0.00000000 final
Ni     -51.88638771      -1.56864046      -0.00000000 final
Ni     -44.07756447      -1.51628216      -0.00000000 final
Ni     -36.24214375      -1.56097305      -0.00000000 final
Ni     -28.23314182      -1.60743577      -0.00000000 final
Ni     -20.31380717      -1.67809965      -0.00000000 final
Ni     -12.61757821      -1.68561698      -0.00000000 final
Ni      -4.88420904      -1.75120099      -0.00000000 final
Fe     -72.32999543      -3.13921512      -0.00000000 final
Ni     -64.50908860      -3.14063438      -0.00000000 final
Ni     -56.68593118      -3.13300233      -0.00000000 final
Ni     -48.89331517      -3.05619089      -0.00000000 final
Ni     -40.86425906      -3.17108243      -0.00000000 final
Ni     -33.00370099      -3.15978707      -0.00000000 final
Mo     -25.01389624      -3.23171746      -0.00000000 final
Fe     -17.20449155      -3.24308397      -0.00000000 final
Ni      -9.55258965      -3.29406006      -0.00000000 final
Mo      -1.69599427      -3.36702423      -0.00000000 final
Ni     -74.64909558       0.06187131      -1.76000000 final
Mo     -66.89806201       0.01686932      -1.76000000 final
Ni     -59.01715238       0.02886254      -1.76000000 final
Ni     -51.14623962       0.02941329      -1.76000000 final
Ni     -43.29016279       0.02671040      -1.76000000 final
Mo     -35.41761282       0.00717809      -1.76000000 final
Ni     -27.43670375      -0.05661555      -1.76000000 final
Ni     -19.54746085      -0.10400089      -1.76000000 final
Ni     -11.84926596      -0.10998260      -1.76000000 final
Fe      -4.11671669      -0.18393223      -1.76000000 final
Ni     -71.56923831      -1.57237362      -1.76000000 final
Cr     -63.74156779      -1.54687678      -1.76000000 final
Ni     -55.91342953      -1.54500144      -1.76000000 final
Ni     -48.10292856      -1.46893855      -1.76000000 final
Ni     -40.09045115      -1.58631650      -1.76000000 final
Cr     -32.24129045      -1.58086546      -1.76000000 final
Ni     -24.16926342      -1.67395701      -1.76000000 final
Ni     -16.43958106      -1.68154837      -1.76000000 final
Ni      -8.78660761      -1.73371470      -1.76000000 final
Ni      -0.97445129      -1.82524851      -1.76000000 final
Mo     -76.25917531      -2.97755936      -1.76000000 final
Ni     -68.51590419      -3.11504284      -1.76000000 final
Ni     -60.65863605      -3.08965666      -1.76000000 final
Ni     -52.67424849      -3.16412317      -1.76000000 final
Ni     -44.88171383      -3.11361898      -1.76000000 final
Ni     -37.03748691      -3.11864831      -1.76000000 final
Mo     -29.05924749      -3.16817528      -1.76000000 final
Ni     -21.07277159      -3.26838077      -1.76000000 final
Ni     -13.39182703      -3.24753883      -1.76000000 final
Ni      -5.66255750      -3.33495986      -1.76000000 final
Ni     -73.07566267      -0.77970744      -0.00000000 final
Ni     -65.27725298      -0.79527169      -0.00000000 final
Fe     -57.44218490      -0.78057043      -0.00000000 final
Ni     -49.62919927      -0.71356543      -0.00000000 final
Ni     -41.64985985      -0.78492825      -0.00000000 final
Ni     -33.78131690      -0.82098719      -0.00000000 final
Ni     -25.83398149      -0.85436917      -0.00000000 final
Ni     -17.99474926      -0.88509546      -0.00000000 final
Ni     -10.31833007      -0.92962444      -0.00000000 final
Ni      -2.55290453      -0.97947404      -0.00000000 final
Ni     -77.84679041      -2.03589243      -0.00000000 final
Ni     -70.06632862      -2.34185210      -0.00000000 final
Ni     -62.22757401      -2.30538908      -0.00000000 final
Mo     -54.29504232      -2.36126458      -0.00000000 final
Mo     -46.48795268      -2.28289427      -0.00000000 final
Ni     -38.57657328      -2.35288604      -0.00000000 final
Ni     -30.70166145      -2.33786323      -0.00000000 final
Ni     -22.60199872      -2.48850783      -0.00000000 final
Cr     -14.91730338      -2.46257193      -0.00000000 final
Fe      -7.21788519      -2.53619156      -0.00000000 final
