520
Lattice="0.0 0.0 -7.04 4e-16 -7.870959280799259 3.5200000000000014 -102.32247065039037 0.0 -6.3e-15" Properties=species:S:1:pos:R:3:frame_label:S:1 pbc="T T T"
Ni    -100.68421613      -3.12817769      -0.00000000 random
Mo     -92.83912035      -3.15220828      -0.00000000 random
Mo     -85.08944627      -3.14675678      -0.00000000 random
Fe     -97.49635799      -1.56976201      -0.00000000 random
Ni     -89.74084859      -1.57280813      -0.00000000 random
Ni     -82.01308271      -1.56713148      -0.00000000 random
Mo    -102.32334456      -0.01198342      -0.00000000 random
Ni     -94.38747173      -0.00509226      -0.00000000 random
Ni     -86.64459173       0.00509226      -0.00000000 random
Cr     -99.01898075      -2.36834816      -1.76000000 random
Ni     -91.29121487      -2.36267151      -1.76000000 random
Ni     -83.53570547      -2.36571763      -1.76000000 random
Mo     -95.94261719      -0.78872286      -1.76000000 random
Ni     -88.19294311      -0.78327136      -1.76000000 random
Cr     -80.34784733      -0.80730195      -1.76000000 random
Ni     -98.28548225       0.00638148      -1.76000000 random
Fe     -90.51603173       0.00000000      -1.76000000 random
Ni     -82.74658121      -0.00638148      -1.76000000 random
Ni     -95.16397428      -2.36492959      -0.00000000 random
Ni     -87.41715697      -2.35689535      -0.00000000 random
Ni     -79.80510840      -2.38181110      -0.00000000 random
Ni     -99.83824749      -0.74628196      -0.00000000 random
Ni     -92.06429434      -0.79030318      -0.00000000 random
Ni     -84.32128036      -0.78349434      -0.00000000 random
Mo     -96.71078310      -3.15198530      -1.76000000 random
Ni     -88.96776911      -3.14517646      -1.76000000 random
Ni     -81.19381597      -3.18919768      -1.76000000 random
Ni    -101.22695506      -1.55366854      -1.76000000 random
Ni     -93.61490649      -1.57858429      -1.76000000 random
Ni     -85.86808917      -1.57055005      -1.76000000 random
Cr     -77.06870959      -0.80694054      -1.76000000 random
Ni     -69.19580674      -0.77997460      -1.76000000 random
Ni     -61.38003842      -0.78579651      -1.76000000 random
Ni     -53.52214389      -0.78706552      -1.76000000 random
Ni     -45.65156116      -0.78709580      -1.76000000 random
Mo     -37.78060477      -0.78709594      -1.76000000 random
Ni     -29.90966339      -0.78709706      -1.76000000 random
Ni     -22.04074162      -0.78727425      -1.76000000 random
Ni     -14.19773857      -0.79019384      -1.76000000 random
Cr      -6.39440802      -0.79036345      -1.76000000 random
Mo     -73.87450081      -2.36470172      -1.76000000 random
Ni     -66.07520422      -2.35684258      -1.76000000 random
Cr     -58.24089081      -2.36090943      -1.76000000 random
Ni     -50.37408761      -2.36128415      -1.76000000 random
Ni     -42.50317956      -2.36128776      -1.76000000 random
Ni     -34.63222203      -2.36128784      -1.76000000 random
Ni     -26.76140607      -2.36129878      -1.76000000 random
Ni     -18.89818089      -2.36202534      -1.76000000 random
Ni     -11.07228666      -2.36721621      -1.76000000 random
Ni      -3.30869562      -2.36886856      -1.76000000 random
Ni     -78.70871890       0.01198342      -0.00000000 random
Ni     -70.75281085       0.00748857      -0.00000000 random
Ni     -62.94670336       0.00210653      -0.00000000 random
Ni     -55.09579383       0.00007700      -0.00000000 random
Ni     -47.22574908       0.00000036      -0.00000000 random
Cr     -39.35479640       0.00000000      -0.00000000 random
Ni     -31.48384373      -0.00000036      -0.00000000 random
Ni     -23.61379897      -0.00007700      -0.00000000 random
Ni     -15.76288945      -0.00210653      -0.00000000 random
Ni      -7.95678196      -0.00748857      -0.00000000 random
Ni     -75.40089718      -1.56661108      -0.00000000 random
Ni     -67.63730615      -1.56826343      -0.00000000 random
Ni     -59.81141192      -1.57345430      -0.00000000 random
Mo     -51.94818674      -1.57418086      -0.00000000 random
Ni     -44.07737078      -1.57419180      -0.00000000 random
Ni     -36.20641324      -1.57419188      -0.00000000 random
Ni     -28.33550520      -1.57419549      -0.00000000 random
Ni     -20.46870199      -1.57457021      -0.00000000 random
Ni     -12.63438859      -1.57863706      -0.00000000 random
Ni      -4.83509200      -1.57077792      -0.00000000 random
Ni     -72.31518479      -3.14511619      -0.00000000 random
Ni     -64.51185424      -3.14528580      -0.00000000 random
Mo     -56.66885119      -3.14820539      -0.00000000 random
Ni     -48.79992942      -3.14838258      -0.00000000 random
Ni     -40.92898804      -3.14838370      -0.00000000 random
Ni     -33.05803165      -3.14838384      -0.00000000 random
Mo     -25.18744892      -3.14841412      -0.00000000 random
Mo     -17.32955438      -3.14968313      -0.00000000 random
Ni      -9.51378607      -3.15550504      -0.00000000 random
Ni      -1.64088322      -3.12853910      -0.00000000 random
Ni     -74.66571632      -0.00561005      -1.76000000 random
Ni     -66.85646447       0.00497554      -1.76000000 random
Ni     -59.02637329       0.00053323      -1.76000000 random
Ni     -51.16114832       0.00000638      -1.76000000 random
Ni     -43.29027523       0.00000004      -1.76000000 random
Ni     -35.41931758      -0.00000004      -1.76000000 random
Ni     -27.54844449      -0.00000638      -1.76000000 random
Ni     -19.68321952      -0.00053323      -1.76000000 random
Ni     -11.85312834      -0.00497554      -1.76000000 random
Ni      -4.04387649       0.00561005      -1.76000000 random
Ni     -71.53308978      -1.56854538      -1.76000000 random
Ni     -63.72944384      -1.57161596      -1.76000000 random
Ni     -55.88242044      -1.57407356      -1.76000000 random
Ni     -48.01284078      -1.57419122      -1.76000000 random
Ni     -40.14189223      -1.57419185      -1.76000000 random
Ni     -32.27093718      -1.57419207      -1.76000000 random
Ni     -24.40057094      -1.57424087      -1.76000000 random
Ni     -16.54598334      -1.57587304      -1.76000000 random
Ni      -8.73356633      -1.58145705      -1.76000000 random
Ni      -1.09856287      -1.55406655      -1.76000000 random
Ni     -76.22147516      -3.18885388      -1.76000000 random
Ni     -68.41614100      -3.14135486      -1.76000000 random
Ni     -60.59596359      -3.14739015      -1.76000000 random
Ni     -52.73519090      -3.14836521      -1.76000000 random
Ni     -44.86446613      -3.14838363      -1.76000000 random
Ni     -36.99350898      -3.14838373      -1.76000000 random
Ni     -29.12257996      -3.14838575      -1.76000000 random
Ni     -21.25456414      -3.14864630      -1.76000000 random
Ni     -13.41571760      -3.15208440      -1.76000000 random
Ni      -5.62315349      -3.15323213      -1.76000000 random
Cr     -73.08643932      -0.78224751      -0.00000000 random
Ni     -65.29387520      -0.78339524      -0.00000000 random
Ni     -57.45502866      -0.78683334      -0.00000000 random
Cr     -49.58701285      -0.78709389      -0.00000000 random
Ni     -41.71608383      -0.78709591      -0.00000000 random
Ni     -33.84512668      -0.78709601      -0.00000000 random
Mo     -25.97440190      -0.78711443      -0.00000000 random
Ni     -18.11362921      -0.78808949      -0.00000000 random
Mo     -10.29345181      -0.79412478      -0.00000000 random
Ni      -2.48811765      -0.74662576      -0.00000000 random
Ni     -77.61102994      -2.38141309      -0.00000000 random
Mo     -69.97602648      -2.35402259      -0.00000000 random
Ni     -62.16360947      -2.35960660      -0.00000000 random
Ni     -54.30902187      -2.36123877      -0.00000000 random
Mo     -46.43865562      -2.36128757      -0.00000000 random
Ni     -38.56770058      -2.36128779      -0.00000000 random
Cr     -30.69675203      -2.36128842      -0.00000000 random
Ni     -22.82717237      -2.36140608      -0.00000000 random
Ni     -14.98014897      -2.36386368      -0.00000000 random
Ni      -7.17650302      -2.36693426      -0.00000000 random
Ni    -100.68421613      -7.06365733       1.76000000 random
Cr     -92.83912035      -7.08768792       1.76000000 random
Cr     -85.08944627      -7.08223642       1.76000000 random
Ni     -97.49635799      -5.50524165       1.76000000 random
Ni     -89.74084859      -5.50828777       1.76000000 random
Ni     -82.01308271      -5.50261112       1.76000000 random
Ni    -102.32334456      -3.94746306       1.76000000 random
Ni     -94.38747173      -3.94057190       1.76000000 random
Ni     -86.64459173      -3.93038738       1.76000000 random
Ni     -99.01898075      -6.30382780      -0.00000000 random
Ni     -91.29121487      -6.29815115      -0.00000000 random
Ni     -83.53570547      -6.30119727      -0.00000000 random
Ni     -95.94261719      -4.72420250      -0.00000000 random
Ni     -88.19294311      -4.71875100      -0.00000000 random
Ni     -80.34784733      -4.74278159      -0.00000000 random
Ni     -98.28548225      -3.92909816      -0.00000000 random
Ni     -90.51603173      -3.93547964      -0.00000000 random
Mo     -82.74658121      -3.94186112      -0.00000000 random
Ni     -95.16397428      -6.30040923       1.76000000 random
Ni     -87.41715697      -6.29237499       1.76000000 random
Ni     -79.80510840      -6.31729074       1.76000000 random
Ni     -99.83824749      -4.68176160       1.76000000 random
Ni     -92.06429434      -4.72578282       1.76000000 random
Ni     -84.32128036      -4.71897399       1.76000000 random
Ni     -96.71078310      -7.08746494      -0.00000000 random
Ni     -88.96776911      -7.08065610      -0.00000000 random
Ni     -81.19381597      -7.12467732      -0.00000000 random
Mo    -101.22695506      -5.48914818      -0.00000000 random
Ni     -93.61490649      -5.51406393      -0.00000000 random
Ni     -85.86808917      -5.50602970      -0.00000000 random
Mo     -77.06870959      -4.74242018      -0.00000000 random
Ni     -69.19580674      -4.71545424      -0.00000000 random
Fe     -61.38003842      -4.72127615      -0.00000000 random
Ni     -53.52214389      -4.72254516      -0.00000000 random
Ni     -45.65156116      -4.72257544      -0.00000000 random
Ni     -37.78060477      -4.72257558      -0.00000000 random
Fe     -29.90966339      -4.72257670      -0.00000000 random
Ni     -22.04074162      -4.72275389      -0.00000000 random
Ni     -14.19773857      -4.72567348      -0.00000000 random
Mo      -6.39440802      -4.72584309      -0.00000000 random
Ni     -73.87450081      -6.30018136      -0.00000000 random
Ni     -66.07520422      -6.29232222      -0.00000000 random
Ni     -58.24089081      -6.29638907      -0.00000000 random
Cr     -50.37408761      -6.29676379      -0.00000000 random
Ni     -42.50317956      -6.29676740      -0.00000000 random
Cr     -34.63222203      -6.29676748      -0.00000000 random
Ni     -26.76140607      -6.29677842      -0.00000000 random
Ni     -18.89818089      -6.29750498      -0.00000000 random
Mo     -11.07228666      -6.30269585      -0.00000000 random
Cr      -3.30869562      -6.30434820      -0.00000000 random
Ni     -78.70871890      -3.92349622       1.76000000 random
Ni     -70.75281085      -3.92799107       1.76000000 random
Mo     -62.94670336      -3.93337312       1.76000000 random
Ni     -55.09579383      -3.93540264       1.76000000 random
Ni     -47.22574908      -3.93547928       1.76000000 random
Ni     -39.35479640      -3.93547964       1.76000000 random
Ni     -31.48384373      -3.93548000       1.76000000 random
Ni     -23.61379897      -3.93555664       1.76000000 random
Cr     -15.76288945      -3.93758617       1.76000000 random
Ni      -7.95678196      -3.94296821       1.76000000 random
Mo     -75.40089718      -5.50209072       1.76000000 random
Ni     -67.63730615      -5.50374307       1.76000000 random
Ni     -59.81141192      -5.50893394       1.76000000 random
Fe     -51.94818674      -5.50966050       1.76000000 random
Ni     -44.07737078      -5.50967144       1.76000000 random
Ni     -36.20641324      -5.50967152       1.76000000 random
Ni     -28.33550520      -5.50967513       1.76000000 random
Ni     -20.46870199      -5.51004985       1.76000000 random
Ni     -12.63438859      -5.51411670       1.76000000 random
Ni      -4.83509200      -5.50625756       1.76000000 random
Ni     -72.31518479      -7.08059583       1.76000000 random
Ni     -64.51185424      -7.08076544       1.76000000 random
Fe     -56.66885119      -7.08368503       1.76000000 random
Ni     -48.79992942      -7.08386222       1.76000000 random
Ni     -40.92898804      -7.08386334       1.76000000 random
Ni     -33.05803165      -7.08386348       1.76000000 random
Ni     -25.18744892      -7.08389376       1.76000000 random
Ni     -17.32955438      -7.08516277       1.76000000 random
Mo      -9.51378607      -7.09098468       1.76000000 random
Ni      -1.64088322      -7.06401874       1.76000000 random
Mo     -74.66571632      -3.94108969      -0.00000000 random
Cr     -66.85646447      -3.93050410      -0.00000000 random
Ni     -59.02637329      -3.93494641      -0.00000000 random
Mo     -51.16114832      -3.93547326      -0.00000000 random
Ni     -43.29027523      -3.93547960      -0.00000000 random
Ni     -35.41931758      -3.93547968      -0.00000000 random
Ni     -27.54844449      -3.93548602      -0.00000000 random
Ni     -19.68321952      -3.93601287      -0.00000000 random
Ni     -11.85312834      -3.94045518      -0.00000000 random
Ni      -4.04387649      -3.92986959      -0.00000000 random
Ni     -71.53308978      -5.50402502      -0.00000000 random
Ni     -63.72944384      -5.50709561      -0.00000000 random
Ni     -55.88242044      -5.50955320      -0.00000000 random
Ni     -48.01284078      -5.50967086      -0.00000000 random
Ni     -40.14189223      -5.50967149      -0.00000000 random
Ni     -32.27093718      -5.50967171      -0.00000000 random
Ni     -24.40057094      -5.50972051      -0.00000000 random
Ni     -16.54598334      -5.51135268      -0.00000000 random
Ni      -8.73356633      -5.51693669      -0.00000000 random
Mo      -1.09856287      -5.48954619      -0.00000000 random
Ni     -76.22147516      -7.12433352      -0.00000000 random
Ni     -68.41614100      -7.07683450      -0.00000000 random
Cr     -60.59596359      -7.08286979      -0.00000000 random
Cr     -52.73519090      -7.08384485      -0.00000000 random
Ni     -44.86446613      -7.08386327      -0.00000000 random
Ni     -36.99350898      -7.08386337      -0.00000000 random
Ni     -29.12257996      -7.08386539      -0.00000000 random
Mo     -21.25456414      -7.08412594      -0.00000000 random
Cr     -13.41571760      -7.08756404      -0.00000000 random
Fe      -5.62315349      -7.08871177      -0.00000000 random
Ni     -73.08643932      -4.71772716       1.76000000 random
Ni     -65.29387520      -4.71887488       1.76000000 random
Ni     -57.45502866      -4.72231298       1.76000000 random
Ni     -49.58701285      -4.72257353       1.76000000 random
Ni     -41.71608383      -4.72257555       1.76000000 random
Ni     -33.84512668      -4.72257565       1.76000000 random
Ni     -25.97440190      -4.72259407       1.76000000 random
Ni     -18.11362921      -4.72356913       1.76000000 random
Cr     -10.29345181      -4.72960442       1.76000000 random
Cr      -2.48811765      -4.68210540       1.76000000 random
Ni     -77.61102994      -6.31689273       1.76000000 random
Ni     -69.97602648      -6.28950223       1.76000000 random
Ni     -62.16360947      -6.29508624       1.76000000 random
Ni     -54.30902187      -6.29671841       1.76000000 random
Mo     -46.43865562      -6.29676721       1.76000000 random
Ni     -38.56770058      -6.29676743       1.76000000 random
Ni     -30.69675203      -6.29676806       1.76000000 random
Cr     -22.82717237      -6.29688572       1.76000000 random
Ni     -14.98014897      -6.29934332       1.76000000 random
Cr      -7.17650302      -6.30241390       1.76000000 random
Ni    -100.68421613      -3.12817769      -3.52000000 random
Ni     -92.83912035      -3.15220828      -3.52000000 random
Ni     -85.08944627      -3.14675678      -3.52000000 random
Ni     -97.49635799      -1.56976201      -3.52000000 random
Ni     -89.74084859      -1.57280813      -3.52000000 random
Ni     -82.01308271      -1.56713148      -3.52000000 random
Cr    -102.32334456      -0.01198342      -3.52000000 random
Ni     -94.38747173      -0.00509226      -3.52000000 random
Ni     -86.64459173       0.00509226      -3.52000000 random
Ni     -99.01898075      -2.36834816      -5.28000000 random
Mo     -91.29121487      -2.36267151      -5.28000000 random
Ni     -83.53570547      -2.36571763      -5.28000000 random
Ni     -95.94261719      -0.78872286      -5.28000000 random
Fe     -88.19294311      -0.78327136      -5.28000000 random
Ni     -80.34784733      -0.80730195      -5.28000000 random
Ni     -98.28548225       0.00638148      -5.28000000 random
Ni     -90.51603173       0.00000000      -5.28000000 random
Ni     -82.74658121      -0.00638148      -5.28000000 random
Cr     -95.16397428      -2.36492959      -3.52000000 random
Ni     -87.41715697      -2.35689535      -3.52000000 random
Cr     -79.80510840      -2.38181110      -3.52000000 random
Ni     -99.83824749      -0.74628196      -3.52000000 random
Ni     -92.06429434      -0.79030318      -3.52000000 random
Ni     -84.32128036      -0.78349434      -3.52000000 random
Ni     -96.71078310      -3.15198530      -5.28000000 random
Ni     -88.96776911      -3.14517646      -5.28000000 random
Ni     -81.19381597      -3.18919768      -5.28000000 random
Mo    -101.22695506      -1.55366854      -5.28000000 random
Ni     -93.61490649      -1.57858429      -5.28000000 random
Ni     -85.86808917      -1.57055005      -5.28000000 random
Ni     -77.06870959      -0.80694054      -5.28000000 random
Fe     -69.19580674      -0.77997460      -5.28000000 random
Ni     -61.38003842      -0.78579651      -5.28000000 random
Cr     -53.52214389      -0.78706552      -5.28000000 random
Ni     -45.65156116      -0.78709580      -5.28000000 random
Ni     -37.78060477      -0.78709594      -5.28000000 random
Mo     -29.90966339      -0.78709706      -5.28000000 random
Ni     -22.04074162      -0.78727425      -5.28000000 random
Ni     -14.19773857      -0.79019384      -5.28000000 random
Ni      -6.39440802      -0.79036345      -5.28000000 random
Ni     -73.87450081      -2.36470172      -5.28000000 random
Ni     -66.07520422      -2.35684258      -5.28000000 random
Cr     -58.24089081      -2.36090943      -5.28000000 random
Ni     -50.37408761      -2.36128415      -5.28000000 random
Ni     -42.50317956      -2.36128776      -5.28000000 random
Ni     -34.63222203      -2.36128784      -5.28000000 random
Ni     -26.76140607      -2.36129878      -5.28000000 random
Mo     -18.89818089      -2.36202534      -5.28000000 random
Ni     -11.07228666      -2.36721621      -5.28000000 random
Ni      -3.30869562      -2.36886856      -5.28000000 random
Ni     -78.70871890       0.01198342      -3.52000000 random
Ni     -70.75281085       0.00748857      -3.52000000 random
Cr     -62.94670336       0.00210653      -3.52000000 random
Ni     -55.09579383       0.00007700      -3.52000000 random
Ni     -47.22574908       0.00000036      -3.52000000 random
Ni     -39.35479640       0.00000000      -3.52000000 random
Ni     -31.48384373      -0.00000036      -3.52000000 random
Mo     -23.61379897      -0.00007700      -3.52000000 random
Ni     -15.76288945      -0.00210653      -3.52000000 random
Ni      -7.95678196      -0.00748857      -3.52000000 random
Ni     -75.40089718      -1.56661108      -3.52000000 random
Mo     -67.63730615      -1.56826343      -3.52000000 random
Ni     -59.81141192      -1.57345430      -3.52000000 random
Ni     -51.94818674      -1.57418086      -3.52000000 random
Ni     -44.07737078      -1.57419180      -3.52000000 random
Ni     -36.20641324      -1.57419188      -3.52000000 random
Fe     -28.33550520      -1.57419549      -3.52000000 random
Ni     -20.46870199      -1.57457021      -3.52000000 random
Ni     -12.63438859      -1.57863706      -3.52000000 random
Fe      -4.83509200      -1.57077792      -3.52000000 random
Ni     -72.31518479      -3.14511619      -3.52000000 random
Mo     -64.51185424      -3.14528580      -3.52000000 random
Ni     -56.66885119      -3.14820539      -3.52000000 random
Ni     -48.79992942      -3.14838258      -3.52000000 random
Ni     -40.92898804      -3.14838370      -3.52000000 random
Ni     -33.05803165      -3.14838384      -3.52000000 random
Ni     -25.18744892      -3.14841412      -3.52000000 random
Fe     -17.32955438      -3.14968313      -3.52000000 random
Ni      -9.51378607      -3.15550504      -3.52000000 random
Ni      -1.64088322      -3.12853910      -3.52000000 random
Ni     -74.66571632      -0.00561005      -5.28000000 random
Cr     -66.85646447       0.00497554      -5.28000000 random
Ni     -59.02637329       0.00053323      -5.28000000 random
Ni     -51.16114832       0.00000638      -5.28000000 random
Ni     -43.29027523       0.00000004      -5.28000000 random
Mo     -35.41931758      -0.00000004      -5.28000000 random
Ni     -27.54844449      -0.00000638      -5.28000000 random
Ni     -19.68321952      -0.00053323      -5.28000000 random
Fe     -11.85312834      -0.00497554      -5.28000000 random
Ni      -4.04387649       0.00561005      -5.28000000 random
Ni     -71.53308978      -1.56854538      -5.28000000 random
Ni     -63.72944384      -1.57161596      -5.28000000 random
Mo     -55.88242044      -1.57407356      -5.28000000 random
Ni     -48.01284078      -1.57419122      -5.28000000 random
Ni     -40.14189223      -1.57419185      -5.28000000 random
Ni     -32.27093718      -1.57419207      -5.28000000 random
Ni     -24.40057094      -1.57424087      -5.28000000 random
Mo     -16.54598334      -1.57587304      -5.28000000 random
Ni      -8.73356633      -1.58145705      -5.28000000 random
Ni      -1.09856287      -1.55406655      -5.28000000 random
Ni     -76.22147516      -3.18885388      -5.28000000 random
Ni     -68.41614100      -3.14135486      -5.28000000 random
Ni     -60.59596359      -3.14739015      -5.28000000 random
Ni     -52.73519090      -3.14836521      -5.28000000 random
Ni     -44.86446613      -3.14838363      -5.28000000 random
Ni     -36.99350898      -3.14838373      -5.28000000 random
Ni     -29.12257996      -3.14838575      -5.28000000 random
Ni     -21.25456414      -3.14864630      -5.28000000 random
Ni     -13.41571760      -3.15208440      -5.28000000 random
Cr      -5.62315349      -3.15323213      -5.28000000 random
Mo     -73.08643932      -0.78224751      -3.52000000 random
Ni     -65.29387520      -0.78339524      -3.52000000 random
Ni     -57.45502866      -0.78683334      -3.52000000 random
Ni     -49.58701285      -0.78709389      -3.52000000 random
Ni     -41.71608383      -0.78709591      -3.52000000 random
Cr     -33.84512668      -0.78709601      -3.52000000 random
Ni     -25.97440190      -0.78711443      -3.52000000 random
Ni     -18.11362921      -0.78808949      -3.52000000 random
Cr     -10.29345181      -0.79412478      -3.52000000 random
Ni      -2.48811765      -0.74662576      -3.52000000 random
Mo     -77.61102994      -2.38141309      -3.52000000 random
Ni     -69.97602648      -2.35402259      -3.52000000 random
Ni     -62.16360947      -2.35960660      -3.52000000 random
Ni     -54.30902187      -2.36123877      -3.52000000 random
Ni     -46.43865562      -2.36128757      -3.52000000 random
Ni     -38.56770058      -2.36128779      -3.52000000 random
Ni     -30.69675203      -2.36128842      -3.52000000 random
Ni     -22.82717237      -2.36140608      -3.52000000 random
Ni     -14.98014897      -2.36386368      -3.52000000 random
Ni      -7.17650302      -2.36693426      -3.52000000 random
Ni    -100.68421613      -7.06365733      -1.76000000 random
Mo     -92.83912035      -7.08768792      -1.76000000 random
Ni     -85.08944627      -7.08223642      -1.76000000 random
Ni     -97.49635799      -5.50524165      -1.76000000 random
Ni     -89.74084859      -5.50828777      -1.76000000 random
Ni     -82.01308271      -5.50261112      -1.76000000 random
Ni    -102.32334456      -3.94746306      -1.76000000 random
Fe     -94.38747173      -3.94057190      -1.76000000 random
Ni     -86.64459173      -3.93038738      -1.76000000 random
Cr     -99.01898075      -6.30382780      -3.52000000 random
Mo     -91.29121487      -6.29815115      -3.52000000 random
Ni     -83.53570547      -6.30119727      -3.52000000 random
Ni     -95.94261719      -4.72420250      -3.52000000 random
Cr     -88.19294311      -4.71875100      -3.52000000 random
Ni     -80.34784733      -4.74278159      -3.52000000 random
Ni     -98.28548225      -3.92909816      -3.52000000 random
Ni     -90.51603173      -3.93547964      -3.52000000 random
Cr     -82.74658121      -3.94186112      -3.52000000 random
Ni     -95.16397428      -6.30040923      -1.76000000 random
Ni     -87.41715697      -6.29237499      -1.76000000 random
Ni     -79.80510840      -6.31729074      -1.76000000 random
Fe     -99.83824749      -4.68176160      -1.76000000 random
Ni     -92.06429434      -4.72578282      -1.76000000 random
Ni     -84.32128036      -4.71897399      -1.76000000 random
Ni     -96.71078310      -7.08746494      -3.52000000 random
Ni     -88.96776911      -7.08065610      -3.52000000 random
Ni     -81.19381597      -7.12467732      -3.52000000 random
Ni    -101.22695506      -5.48914818      -3.52000000 random
Ni     -93.61490649      -5.51406393      -3.52000000 random
Ni     -85.86808917      -5.50602970      -3.52000000 random
Cr     -77.06870959      -4.74242018      -3.52000000 random
Ni     -69.19580674      -4.71545424      -3.52000000 random
Ni     -61.38003842      -4.72127615      -3.52000000 random
Ni     -53.52214389      -4.72254516      -3.52000000 random
Ni     -45.65156116      -4.72257544      -3.52000000 random
Ni     -37.78060477      -4.72257558      -3.52000000 random
Ni     -29.90966339      -4.72257670      -3.52000000 random
Mo     -22.04074162      -4.72275389      -3.52000000 random
Ni     -14.19773857      -4.72567348      -3.52000000 random
Ni      -6.39440802      -4.72584309      -3.52000000 random
Ni     -73.87450081      -6.30018136      -3.52000000 random
Ni     -66.07520422      -6.29232222      -3.52000000 random
Ni     -58.24089081      -6.29638907      -3.52000000 random
Ni     -50.37408761      -6.29676379      -3.52000000 random
Ni     -42.50317956      -6.29676740      -3.52000000 random
Fe     -34.63222203      -6.29676748      -3.52000000 random
Ni     -26.76140607      -6.29677842      -3.52000000 random
Ni     -18.89818089      -6.29750498      -3.52000000 random
Ni     -11.07228666      -6.30269585      -3.52000000 random
Ni      -3.30869562      -6.30434820      -3.52000000 random
Cr     -78.70871890      -3.92349622      -1.76000000 random
Ni     -70.75281085      -3.92799107      -1.76000000 random
Fe     -62.94670336      -3.93337312      -1.76000000 random
Ni     -55.09579383      -3.93540264      -1.76000000 random
Ni     -47.22574908      -3.93547928      -1.76000000 random
Cr     -39.35479640      -3.93547964      -1.76000000 random
Ni     -31.48384373      -3.93548000      -1.76000000 random
Mo     -23.61379897      -3.93555664      -1.76000000 random
Ni     -15.76288945      -3.93758617      -1.76000000 random
Ni      -7.95678196      -3.94296821      -1.76000000 random
Ni     -75.40089718      -5.50209072      -1.76000000 random
Mo     -67.63730615      -5.50374307      -1.76000000 random
Cr     -59.81141192      -5.50893394      -1.76000000 random
Ni     -51.94818674      -5.50966050      -1.76000000 random
Ni     -44.07737078      -5.50967144      -1.76000000 random
Mo     -36.20641324      -5.50967152      -1.76000000 random
Ni     -28.33550520      -5.50967513      -1.76000000 random
Mo     -20.46870199      -5.51004985      -1.76000000 random
Ni     -12.63438859      -5.51411670      -1.76000000 random
Ni      -4.83509200      -5.50625756      -1.76000000 random
Ni     -72.31518479      -7.08059583      -1.76000000 random
Mo     -64.51185424      -7.08076544      -1.76000000 random
Mo     -56.66885119      -7.08368503      -1.76000000 random
Ni     -48.79992942      -7.08386222      -1.76000000 random
Fe     -40.92898804      -7.08386334      -1.76000000 random
Fe     -33.05803165      -7.08386348      -1.76000000 random
Ni     -25.18744892      -7.08389376      -1.76000000 random
Ni     -17.32955438      -7.08516277      -1.76000000 random
Ni      -9.51378607      -7.09098468      -1.76000000 random
Ni      -1.64088322      -7.06401874      -1.76000000 random
Ni     -74.66571632      -3.94108969      -3.52000000 random
Ni     -66.85646447      -3.93050410      -3.52000000 random
Ni     -59.02637329      -3.93494641      -3.52000000 random
Ni     -51.16114832      -3.93547326      -3.52000000 random
Ni     -43.29027523      -3.93547960      -3.52000000 random
Ni     -35.41931758      -3.93547968      -3.52000000 random
Ni     -27.54844449      -3.93548602      -3.52000000 random
Ni     -19.68321952      -3.93601287      -3.52000000 random
Ni     -11.85312834      -3.94045518      -3.52000000 random
Cr      -4.04387649      -3.92986959      -3.52000000 random
Ni     -71.53308978      -5.50402502      -3.52000000 random
Mo     -63.72944384      -5.50709561      -3.52000000 random
Mo     -55.88242044      -5.50955320      -3.52000000 random
Ni     -48.01284078      -5.50967086      -3.52000000 random
Ni     -40.14189223      -5.50967149      -3.52000000 random
Ni     -32.27093718      -5.50967171      -3.52000000 random
Ni     -24.40057094      -5.50972051      -3.52000000 random
Ni     -16.54598334      -5.51135268      -3.52000000 random
Ni      -8.73356633      -5.51693669      -3.52000000 random
Ni      -1.09856287      -5.48954619      -3.52000000 random
Ni     -76.22147516      -7.12433352      -3.52000000 random
Ni     -68.41614100      -7.07683450      -3.52000000 random
Ni     -60.59596359      -7.08286979      -3.52000000 random
Ni     -52.73519090      -7.08384485      -3.52000000 random
Ni     -44.86446613      -7.08386327      -3.52000000 random
Ni     -36.99350898      -7.08386337      -3.52000000 random
Ni     -29.12257996      -7.08386539      -3.52000000 random
Ni     -21.25456414      -7.08412594      -3.52000000 random
Ni     -13.41571760      -7.08756404      -3.52000000 random
Ni      -5.62315349      -7.08871177      -3.52000000 random
Ni     -73.08643932      -4.71772716      -1.76000000 random
Ni     -65.29387520      -4.71887488      -1.76000000 random
Ni     -57.45502866      -4.72231298      -1.76000000 random
Ni     -49.58701285      -4.72257353      -1.76000000 random
Ni     -41.71608383      -4.72257555      -1.76000000 random
Fe     -33.84512668      -4.72257565      -1.76000000 random
Ni     -25.97440190      -4.72259407      -1.76000000 random
Ni     -18.11362921      -4.72356913      -1.76000000 random
Ni     -10.29345181      -4.72960442      -1.76000000 random
Ni      -2.48811765      -4.68210540      -1.76000000 random
Ni     -77.61102994      -6.31689273      -1.76000000 random
Ni     -69.97602648      -6.28950223      -1.76000000 random
Fe     -62.16360947      -6.29508624      -1.76000000 random
Cr     -54.30902187      -6.29671841      -1.76000000 random
Mo     -46.43865562      -6.29676721      -1.76000000 random
Ni     -38.56770058      -6.29676743      -1.76000000 random
Ni     -30.69675203      -6.29676806      -1.76000000 random
Ni     -22.82717237      -6.29688572      -1.76000000 random
Ni     -14.98014897      -6.29934332      -1.76000000 random
Ni      -7.17650302      -6.30241390      -1.76000000 random
520
Lattice="0.0 0.0 -7.04 4e-16 -7.870959280799259 3.5200000000000014 -102.32247065039037 0.0 -6.3e-15" Properties=species:S:1:pos:R:3:frame_label:S:1 pbc="T T T"
Ni    -100.66450672      -3.36424067       0.00302905 snap1000
Ni     -92.85705119      -3.23795772       0.00277053 snap1000
Mo     -85.02164564      -3.13846356       0.00187276 snap1000
Ni     -97.60282982      -1.69136605      -0.02113991 snap1000
Ni     -89.69672817      -1.57543161       0.01730998 snap1000
Ni     -81.96243999      -1.53522667      -0.00233929 snap1000
Ni    -102.41896534      -0.02533458      -0.01248879 snap1000
Ni     -94.46229281      -0.03354803      -0.01211071 snap1000
Ni     -86.61881438      -0.01441622       0.02384686 snap1000
Ni     -99.09994405      -2.51422976      -1.76435507 snap1000
Mo     -91.25845595      -2.39018712      -1.75265322 snap1000
Ni     -83.46131522      -2.31834429      -1.77960198 snap1000
Ni     -96.05960328      -0.85659096      -1.74834880 snap1000
Ni     -88.17821970      -0.82211885      -1.76754897 snap1000
Ni     -80.33274541      -0.76990860      -1.74791381 snap1000
Cr     -98.38117609      -0.11966915      -1.74999716 snap1000
Ni     -90.48678114       0.02009947      -1.75412414 snap1000
Cr     -82.66588924       0.00158494      -1.71469076 snap1000
Mo     -95.22832963      -2.45826382      -0.00643269 snap1000
Fe     -87.38902656      -2.35999377       0.00983139 snap1000
Ni     -79.78094118      -2.38016278       0.01348259 snap1000
Ni     -99.92782467      -0.90387826      -0.02838046 snap1000
Ni     -92.08398320      -0.80128461      -0.01889054 snap1000
Ni     -84.26249274      -0.75203424       0.00256435 snap1000
Ni     -96.80139430      -3.30098388      -1.75995577 snap1000
Ni     -88.92064599      -3.17311453      -1.76995025 snap1000
Cr     -81.16444935      -3.13325342      -1.77936254 snap1000
Mo    -101.46008186      -1.82835074      -1.72891749 snap1000
Ni     -93.65782685      -1.61805248      -1.74808969 snap1000
Ni     -85.85113359      -1.54618065      -1.77686234 snap1000
Ni     -76.96518643      -0.92669345      -1.77367543 snap1000
Ni     -69.14468509      -0.82066340      -1.75612781 snap1000
Ni     -61.23524823      -0.82619036      -1.76436567 snap1000
Ni     -53.33996944      -0.84548983      -1.76075656 snap1000
Ni     -45.55019361      -0.80719780      -1.73591551 snap1000
Ni     -37.83910914      -0.77001485      -1.76484728 snap1000
Ni     -30.02453962      -0.74379120      -1.74819991 snap1000
Ni     -22.17792867      -0.75402059      -1.76547361 snap1000
Fe     -14.35288482      -0.75841539      -1.76856594 snap1000
Ni      -6.44034387      -0.64233868      -1.76320925 snap1000
Ni     -73.85531570      -2.45264365      -1.74716721 snap1000
Ni     -65.95702340      -2.42101732      -1.70920757 snap1000
Ni     -58.14188721      -2.34860196      -1.77306990 snap1000
Ni     -50.24494517      -2.40266025      -1.75507271 snap1000
Ni     -42.43642508      -2.36472077      -1.74046514 snap1000
Ni     -34.67290255      -2.36148183      -1.77492291 snap1000
Ni     -26.89094347      -2.33382680      -1.76426448 snap1000
Ni     -19.05084044      -2.36947575      -1.76782986 snap1000
Mo     -11.17550834      -2.28581273      -1.76752456 snap1000
Ni      -3.43038083      -2.17959526      -1.76111489 snap1000
Mo     -78.69694272      -0.00746636       0.02043044 snap1000
Ni     -70.71784302      -0.03927840      -0.00152285 snap1000
Ni     -62.79308246      -0.05166879      -0.02124086 snap1000
Ni     -54.89417178      -0.08256996      -0.00843098 snap1000
Ni     -47.14352867      -0.00784763       0.02157307 snap1000
Ni     -39.37672146       0.00548622      -0.00416857 snap1000
Ni     -31.53725489       0.04030601      -0.00623961 snap1000
Ni     -23.69830634       0.02873912      -0.00891222 snap1000
Ni     -15.89137614       0.01272057       0.00378908 snap1000
Ni      -8.01657990       0.10355453      -0.02980663 snap1000
Cr     -75.31228854      -1.69471498       0.00497571 snap1000
Ni     -67.53912531      -1.61377335      -0.00259850 snap1000
Ni     -59.72615615      -1.58882527       0.00061932 snap1000
Ni     -51.79271066      -1.61373693      -0.00808880 snap1000
Ni     -43.98510902      -1.59357046       0.00307845 snap1000
Ni     -36.25275231      -1.58709404       0.00027968 snap1000
Ni     -28.48931622      -1.52037632      -0.03933490 snap1000
Ni     -20.59624909      -1.55527483       0.03059376 snap1000
Ni     -12.79857864      -1.52193897      -0.01064863 snap1000
Ni      -4.91792337      -1.40819273      -0.01071329 snap1000
Ni     -72.31489543      -3.19601106       0.00086536 snap1000
Ni     -64.33495341      -3.19196163       0.00966847 snap1000
Mo     -56.51200573      -3.18397646      -0.01402767 snap1000
Cr     -48.68880129      -3.15504083      -0.01449687 snap1000
Ni     -40.89131880      -3.16043405       0.00037379 snap1000
Cr     -33.14699098      -3.09741415      -0.00512530 snap1000
Ni     -25.29135191      -3.12819376      -0.00619975 snap1000
Mo     -17.45510410      -3.14610174       0.00208854 snap1000
Ni      -9.60746946      -3.08057053       0.00508523 snap1000
Ni      -0.82622298      -2.67788305      -0.02425169 snap1000
Ni     -74.58195078      -0.13672949      -1.75351720 snap1000
Ni     -66.74408945      -0.02757139      -1.72978133 snap1000
Ni     -58.92561471      -0.02774446      -1.76050346 snap1000
Ni     -51.02089538      -0.05335498      -1.76752956 snap1000
Fe     -43.21638354      -0.01888111      -1.75314388 snap1000
Mo     -35.46318166       0.02557557      -1.76088040 snap1000
Ni     -27.69956149       0.07744945      -1.75521755 snap1000
Mo     -19.78940939       0.01900088      -1.76661293 snap1000
Ni     -12.05004350       0.10395827      -1.77010912 snap1000
Ni      -4.05949962       0.19467906      -1.75510054 snap1000
Ni     -71.50619453      -1.62628499      -1.77740954 snap1000
Ni     -63.56656203      -1.61373483      -1.73814782 snap1000
Ni     -55.67422815      -1.61945112      -1.75956858 snap1000
Ni     -47.92283227      -1.57736226      -1.74709161 snap1000
Fe     -40.13172853      -1.57237801      -1.75580376 snap1000
Ni     -32.36385790      -1.54099540      -1.76235737 snap1000
Ni     -24.48343521      -1.54113445      -1.76131424 snap1000
Ni     -16.67740616      -1.53566000      -1.76833398 snap1000
Ni      -8.78851453      -1.48307065      -1.77569890 snap1000
Ni      -1.36737421      -1.21490697      -1.72976861 snap1000
Ni     -76.20932562      -3.32634704      -1.72444537 snap1000
Ni     -68.32590754      -3.19982857      -1.75544917 snap1000
Ni     -60.47654650      -3.15648206      -1.76241701 snap1000
Ni     -52.56736323      -3.16781812      -1.75553019 snap1000
Ni     -44.76519747      -3.16814628      -1.70892993 snap1000
Fe     -37.02486546      -3.11899235      -1.75933797 snap1000
Cr     -29.26079898      -3.09225012      -1.76969481 snap1000
Ni     -21.37894165      -3.07566520      -1.76712195 snap1000
Fe     -13.56468432      -3.09419111      -1.76894778 snap1000
Ni      -5.71592367      -2.99176767      -1.74647199 snap1000
Ni     -73.05084054      -0.87214270       0.01364726 snap1000
Ni     -65.14946030      -0.82411230      -0.04228004 snap1000
Ni     -57.34671154      -0.81737173      -0.00172370 snap1000
Ni     -49.47581710      -0.83075963      -0.00840882 snap1000
Cr     -41.66842817      -0.80661477      -0.00890918 snap1000
Ni     -33.86824569      -0.78140329       0.00275911 snap1000
Mo     -26.09685664      -0.74151374      -0.00078884 snap1000
Ni     -18.22950413      -0.74317212       0.02677328 snap1000
Ni     -10.41320640      -0.69738198      -0.00620708 snap1000
Ni      -2.63129840      -0.45157379       0.03662729 snap1000
Ni     -77.54852724      -2.40528797      -0.00167246 snap1000
Mo     -69.93428123      -2.41756067       0.01042596 snap1000
Cr     -62.01510979      -2.39669289      -0.01043746 snap1000
Cr     -54.05897092      -2.38976635      -0.00039577 snap1000
Fe     -46.37920925      -2.37138853      -0.00490267 snap1000
Ni     -38.59112391      -2.34821558       0.00881071 snap1000
Ni     -30.82354070      -2.33926352      -0.03491564 snap1000
Ni     -22.91571879      -2.32527978       0.02837209 snap1000
Ni     -15.09587439      -2.33394181      -0.00619171 snap1000
Ni      -7.23563872      -2.23444765      -0.01525516 snap1000
Ni    -100.75186490      -7.22959048       1.79595828 snap1000
Ni     -92.86941165      -7.11602687       1.76988890 snap1000
Ni     -85.03159882      -7.08236511       1.79367989 snap1000
Ni     -97.56839102      -5.63415712       1.78230272 snap1000
Ni     -89.73943199      -5.50357271       1.76742284 snap1000
Ni     -81.95505683      -5.46189726       1.78927111 snap1000
Ni    -102.30047941      -4.15905010       1.83248334 snap1000
Ni     -94.44248746      -4.04456256       1.77380127 snap1000
Ni     -86.60945902      -3.92535913       1.80377546 snap1000
Ni     -99.11030662      -6.42646702       0.05075232 snap1000
Ni     -91.28455981      -6.30579331       0.01992092 snap1000
Mo     -83.50462652      -6.24597005      -0.01454474 snap1000
Ni     -96.01572910      -4.86030065       0.01350107 snap1000
Ni     -88.17617479      -4.71038257      -0.02856030 snap1000
Ni     -80.26829502      -4.69652675       0.00900409 snap1000
Ni     -98.33437196      -4.08195724       0.01129662 snap1000
Ni     -90.48088596      -3.99068589      -0.00055234 snap1000
Ni     -82.62577912      -3.88116512       0.01016170 snap1000
Ni     -95.22562853      -6.37514108       1.77051681 snap1000
Mo     -87.40999670      -6.30807423       1.76331148 snap1000
Ni     -79.73665401      -6.22394168       1.77388401 snap1000
Ni     -99.89485310      -4.86470560       1.80289522 snap1000
Ni     -92.08594585      -4.78110490       1.76770325 snap1000
Ni     -84.28879525      -4.70439842       1.82197115 snap1000
Ni     -96.78873830      -7.18853165       0.03525719 snap1000
Ni     -88.96658387      -7.08186622      -0.02797386 snap1000
Ni     -81.14510921      -7.07532692       0.01105955 snap1000
Mo    -101.45736960      -5.72791751       0.02882137 snap1000
Ni     -93.66641364      -5.57197932       0.02980426 snap1000
Ni     -85.85849965      -5.50453100      -0.03109846 snap1000
Mo     -77.49835952      -4.86820040      -0.01665542 snap1000
Ni     -69.09326668      -4.78394575       0.03679870 snap1000
Ni     -61.25472550      -4.75244642      -0.03254023 snap1000
Fe     -53.35054188      -4.75943879       0.01965923 snap1000
Ni     -45.56352652      -4.75593901      -0.04079114 snap1000
Ni     -37.80306789      -4.68355349       0.00477509 snap1000
Ni     -29.99145646      -4.67716853      -0.04072412 snap1000
Ni     -22.18024646      -4.71037712       0.05746619 snap1000
Ni     -14.32185447      -4.68822911       0.01297700 snap1000
Ni      -6.47281779      -4.54613259      -0.00072937 snap1000
Ni     -73.82116482      -6.39446049      -0.02988093 snap1000
Ni     -65.98114491      -6.36239356       0.06725716 snap1000
Ni     -58.14200856      -6.30246632      -0.03235954 snap1000
Fe     -50.22807980      -6.34293434       0.01433650 snap1000
Cr     -42.43170947      -6.34851480      -0.01403491 snap1000
Ni     -34.69707001      -6.24862169      -0.00147230 snap1000
Ni     -26.91958848      -6.24667079      -0.03466703 snap1000
Ni     -19.00065259      -6.27842508      -0.03157614 snap1000
Ni     -11.23661243      -6.17571573       0.00202011 snap1000
Ni      -3.36677167      -6.07872214      -0.05569981 snap1000
Ni     -78.70486113      -3.82910980       1.85813998 snap1000
Ni     -70.69133792      -3.97851910       1.81188152 snap1000
Ni     -62.76493816      -3.97504973       1.74439289 snap1000
Ni     -54.88540179      -3.98449233       1.73340586 snap1000
Ni     -47.15854233      -3.93894491       1.72330524 snap1000
Cr     -39.32556925      -3.92536864       1.75150858 snap1000
Ni     -31.60222897      -3.89992032       1.78661605 snap1000
Ni     -23.71661253      -3.92442286       1.75351840 snap1000
Ni     -15.86266427      -3.94091530       1.75147258 snap1000
Ni      -8.00630774      -3.84315459       1.75588880 snap1000
Mo     -75.31868318      -5.61369693       1.79928488 snap1000
Cr     -67.55349416      -5.56248557       1.77396724 snap1000
Mo     -59.71022620      -5.50708131       1.76200335 snap1000
Ni     -51.78415310      -5.54761663       1.74829522 snap1000
Ni     -43.97210976      -5.54424558       1.71097705 snap1000
Ni     -36.26659179      -5.43902818       1.77040015 snap1000
Ni     -28.47309337      -5.48054692       1.76658604 snap1000
Ni     -20.62551275      -5.48096038       1.75377559 snap1000
Cr     -12.77279929      -5.42604028       1.75086021 snap1000
Mo      -4.88497433      -5.31446052       1.75755516 snap1000
Ni     -72.26487679      -7.15759036       1.75995662 snap1000
Cr     -64.37163307      -7.14123143       1.76792999 snap1000
Mo     -56.51964279      -7.12359904       1.75965543 snap1000
Fe     -48.71363339      -7.11069400       1.75817073 snap1000
Ni     -40.90043129      -7.09019646       1.74444024 snap1000
Ni     -33.08648106      -7.05471595       1.79297416 snap1000
Ni     -25.28896818      -7.04993011       1.75782224 snap1000
Ni     -17.41027525      -7.06925725       1.75196123 snap1000
Mo      -9.65117698      -6.98577963       1.74912964 snap1000
Mo      -1.52707410      -6.71953833       1.61377341 snap1000
Ni     -74.65963136      -4.06921608      -0.02657881 snap1000
Ni     -66.74309527      -3.98812273       0.04906553 snap1000
Ni     -58.93091435      -3.93870145      -0.03888933 snap1000
Ni     -51.00319842      -3.95235132       0.01967858 snap1000
Cr     -43.19419345      -3.95448570      -0.01056160 snap1000
Ni     -35.43543424      -3.90541918       0.00302136 snap1000
Ni     -27.67793042      -3.87685873      -0.05995132 snap1000
Ni     -19.84709159      -3.90686925       0.04168406 snap1000
Ni     -12.00475175      -3.87343486       0.00845392 snap1000
Ni      -4.08626536      -3.71475900      -0.01270104 snap1000
Mo     -71.47242554      -5.53945978       0.00336750 snap1000
Ni     -63.59558062      -5.56601290       0.03276843 snap1000
Ni     -55.69373394      -5.56433978      -0.00773454 snap1000
Ni     -47.92435274      -5.51862138      -0.03493609 snap1000
Ni     -40.10154087      -5.52282815      -0.01069863 snap1000
Mo     -32.33806628      -5.48340645      -0.00407190 snap1000
Ni     -24.51077833      -5.52643762       0.01543945 snap1000
Ni     -16.64657669      -5.53463200      -0.02052282 snap1000
Ni      -8.83779508      -5.38891154       0.00229155 snap1000
Ni      -1.33097790      -4.92669069      -0.00326658 snap1000
Ni     -76.14761781      -7.20416551      -0.00588624 snap1000
Ni     -68.35686311      -7.12261153       0.03796959 snap1000
Ni     -60.47683786      -7.12550901      -0.02078855 snap1000
Ni     -52.56876458      -7.14025809       0.01460586 snap1000
Ni     -44.78818363      -7.12594845      -0.03793892 snap1000
Ni     -37.08983579      -7.03197866      -0.00754391 snap1000
Ni     -29.25471734      -7.03036474      -0.00410958 snap1000
Ni     -21.38601513      -7.07040959      -0.00018418 snap1000
Ni     -13.57867504      -7.01662981       0.00683981 snap1000
Ni      -5.67291971      -6.94655264       0.00593510 snap1000
Ni     -73.02657188      -4.76769723       1.80128671 snap1000
Ni     -65.16446979      -4.79065141       1.72859525 snap1000
Ni     -57.31014367      -4.74312496       1.75885537 snap1000
Ni     -49.45133233      -4.74069471       1.74063162 snap1000
Ni     -41.64344223      -4.74430158       1.72384577 snap1000
Ni     -33.93000755      -4.70243074       1.80667960 snap1000
Mo     -26.12465099      -4.69754407       1.75724056 snap1000
Ni     -18.24909248      -4.75874898       1.75212583 snap1000
Ni     -10.42942288      -4.61417116       1.75035883 snap1000
Ni      -2.57684089      -4.39341098       1.83698827 snap1000
Ni     -77.53758246      -6.46433726       1.84269823 snap1000
Ni     -69.90477953      -6.35960064       1.77938533 snap1000
Ni     -62.05744221      -6.35632070       1.75549667 snap1000
Ni     -54.11617645      -6.35427238       1.75298793 snap1000
Mo     -46.34949479      -6.31407909       1.75031227 snap1000
Ni     -38.59649410      -6.27095593       1.75549636 snap1000
Ni     -30.76373105      -6.25203071       1.80166991 snap1000
Cr     -22.95638773      -6.29708480       1.75527965 snap1000
Fe     -15.09203314      -6.28358938       1.75108140 snap1000
Ni      -7.25225238      -6.17842295       1.75070553 snap1000
Ni    -100.68730487      -3.32991445      -3.51062235 snap1000
Ni     -92.85695944      -3.23159421      -3.50599246 snap1000
Ni     -85.07045004      -3.11748567      -3.50799525 snap1000
Ni     -97.60170373      -1.69239730      -3.48497673 snap1000
Ni     -89.68762642      -1.57753898      -3.52332953 snap1000
Ni     -81.94736002      -1.51845147      -3.50011412 snap1000
Ni    -102.35223728      -0.26018658      -3.50298991 snap1000
Ni     -94.46283352      -0.03837563      -3.48799080 snap1000
Ni     -86.60556628      -0.00978112      -3.53860449 snap1000
Ni     -99.09958654      -2.52690160      -5.26057685 snap1000
Mo     -91.28601376      -2.38847636      -5.27185518 snap1000
Ni     -83.45804527      -2.33371485      -5.24626007 snap1000
Ni     -96.00636621      -0.84656620      -5.27322805 snap1000
Ni     -88.14989818      -0.80695581      -5.25879536 snap1000
Ni     -80.33385339      -0.76257199      -5.27543979 snap1000
Mo     -98.37776169      -0.10537755      -5.27146983 snap1000
Ni     -90.49375222       0.00785946      -5.27401574 snap1000
Ni     -82.69806298       0.02369248      -5.29176942 snap1000
Mo     -95.23007644      -2.45509224      -3.49670380 snap1000
Cr     -87.37790338      -2.35583292      -3.51748861 snap1000
Ni     -79.71495334      -2.29061755      -3.52125789 snap1000
Ni     -99.93298538      -0.89806022      -3.47694594 snap1000
Ni     -92.08482805      -0.80212858      -3.48744576 snap1000
Ni     -84.26038597      -0.76466722      -3.50233592 snap1000
Ni     -96.80863319      -3.27378691      -5.26243470 snap1000
Ni     -88.90648706      -3.17181133      -5.25646197 snap1000
Cr     -81.15035146      -3.14504243      -5.24680034 snap1000
Mo    -101.41820547      -1.79255396      -5.30371055 snap1000
Ni     -93.65677705      -1.64120827      -5.27578129 snap1000
Ni     -85.83044625      -1.56807192      -5.25106691 snap1000
Ni     -76.97755169      -0.92922753      -5.25448978 snap1000
Ni     -69.13841148      -0.80659116      -5.27581041 snap1000
Ni     -61.26494577      -0.82524800      -5.27399804 snap1000
Ni     -53.33242614      -0.83640501      -5.29155170 snap1000
Ni     -45.55624092      -0.78683001      -5.31442292 snap1000
Ni     -37.85412089      -0.76262277      -5.27659429 snap1000
Ni     -30.03416218      -0.73428872      -5.29421139 snap1000
Ni     -22.11812813      -0.75501124      -5.28599255 snap1000
Ni     -14.35260701      -0.75416190      -5.28890196 snap1000
Ni      -6.43894413      -0.66947741      -5.28219557 snap1000
Ni     -73.86666125      -2.46289389      -5.27853279 snap1000
Ni     -65.92947057      -2.39008914      -5.32442639 snap1000
Ni     -58.14599669      -2.36304888      -5.27272429 snap1000
Fe     -50.24213729      -2.39346662      -5.28987978 snap1000
Ni     -42.44113380      -2.37280553      -5.31179830 snap1000
Ni     -34.66858035      -2.35989536      -5.26742394 snap1000
Ni     -26.89703070      -2.31415796      -5.28121036 snap1000
Ni     -19.05099068      -2.32410442      -5.28745449 snap1000
Ni     -11.21973041      -2.31140636      -5.28573417 snap1000
Ni      -3.47735073      -2.16771545      -5.27327838 snap1000
Mo     -78.65518501       0.09319880      -3.52334451 snap1000
Cr     -70.67738129      -0.10372522      -3.50841648 snap1000
Ni     -62.80051198      -0.06247681      -3.49395278 snap1000
Ni     -54.89492566      -0.07478043      -3.52128781 snap1000
Ni     -47.15328363      -0.00419260      -3.55955411 snap1000
Cr     -39.37375122       0.00114205      -3.51356463 snap1000
Ni     -31.54445029       0.01622221      -3.51453695 snap1000
Ni     -23.69747415       0.02823681      -3.51955033 snap1000
Ni     -15.89211904       0.01240361      -3.54075438 snap1000
Fe      -8.00262376       0.10149719      -3.50141310 snap1000
Fe     -75.35430854      -1.68367361      -3.51252910 snap1000
Mo     -67.52071349      -1.61477035      -3.51343626 snap1000
Cr     -59.68951492      -1.57690840      -3.52122327 snap1000
Fe     -51.78489221      -1.61306384      -3.52400176 snap1000
Ni     -43.97958993      -1.57313198      -3.53471612 snap1000
Ni     -36.25809750      -1.56658700      -3.52376954 snap1000
Ni     -28.49174313      -1.51899189      -3.48076197 snap1000
Ni     -20.59871493      -1.55676372      -3.56430778 snap1000
Ni     -12.80103868      -1.52277593      -3.52603162 snap1000
Ni      -4.95176919      -1.39951630      -3.50636597 snap1000
Ni     -72.28693583      -3.19907948      -3.50626094 snap1000
Mo     -64.38434819      -3.20044618      -3.52283671 snap1000
Mo     -56.50872610      -3.18064269      -3.51576473 snap1000
Ni     -48.70385002      -3.16151493      -3.52310818 snap1000
Fe     -40.87070697      -3.14613278      -3.53185477 snap1000
Ni     -33.15160447      -3.14358846      -3.51546527 snap1000
Ni     -25.29177222      -3.12974488      -3.52042521 snap1000
Mo     -17.45528066      -3.14558743      -3.53856666 snap1000
Ni      -9.60979410      -3.08701600      -3.53536019 snap1000
Mo      -1.53054075      -2.86038005      -3.47887490 snap1000
Ni     -74.59632998      -0.11762687      -5.27384378 snap1000
Ni     -66.75162849      -0.05507803      -5.31115631 snap1000
Ni     -58.94118986      -0.01838356      -5.28048917 snap1000
Ni     -51.01273980      -0.06418968      -5.28906937 snap1000
Ni     -43.18990051      -0.03088471      -5.29179533 snap1000
Mo     -35.47030792       0.02844392      -5.28184798 snap1000
Ni     -27.73258145       0.04805278      -5.28893137 snap1000
Cr     -19.78999678      -0.01070877      -5.28769220 snap1000
Mo     -12.00573279       0.08208747      -5.28883493 snap1000
Ni      -4.13399341       0.21527491      -5.28168230 snap1000
Ni     -71.50614207      -1.62898711      -5.24924141 snap1000
Ni     -63.55984521      -1.63225385      -5.30074782 snap1000
Ni     -55.67684314      -1.62782086      -5.29089162 snap1000
Ni     -47.93557163      -1.58145989      -5.31065123 snap1000
Fe     -40.14392879      -1.57484758      -5.29881278 snap1000
Ni     -32.34053845      -1.55617401      -5.27979843 snap1000
Ni     -24.47464798      -1.55379902      -5.28634868 snap1000
Ni     -16.65904661      -1.53379492      -5.28822840 snap1000
Mo      -8.81535138      -1.47035460      -5.28156107 snap1000
Ni      -1.33703115      -1.28809254      -5.29507498 snap1000
Ni     -76.21164574      -3.29200343      -5.30127004 snap1000
Ni     -68.31388423      -3.20915575      -5.27590127 snap1000
Ni     -60.47846522      -3.12967179      -5.27880539 snap1000
Ni     -52.56870608      -3.17745433      -5.29581300 snap1000
Ni     -44.78567356      -3.18865098      -5.34346651 snap1000
Ni     -37.02477728      -3.11420979      -5.27719410 snap1000
Mo     -29.24638177      -3.10738476      -5.27827564 snap1000
Cr     -21.39858421      -3.10174236      -5.28511537 snap1000
Ni     -13.55209879      -3.10985813      -5.28845736 snap1000
Cr      -5.73728060      -2.93232336      -5.29138683 snap1000
Ni     -73.02931001      -0.85901672      -3.51806720 snap1000
Ni     -65.15392950      -0.81696413      -3.47558666 snap1000
Ni     -57.34704506      -0.81832851      -3.52411890 snap1000
Fe     -49.47800384      -0.82567982      -3.52483658 snap1000
Ni     -41.65719104      -0.80203055      -3.52403555 snap1000
Cr     -33.82272406      -0.78743701      -3.52536566 snap1000
Mo     -26.08717059      -0.74428092      -3.52450020 snap1000
Ni     -18.23159781      -0.74271837      -3.56246481 snap1000
Ni     -10.41821473      -0.69821664      -3.52830763 snap1000
Ni      -2.65823122      -0.54438339      -3.54428841 snap1000
Cr     -77.49008614      -2.46943456      -3.50651321 snap1000
Ni     -69.91889266      -2.39366927      -3.52046761 snap1000
Cr     -61.96939124      -2.37519798      -3.50863697 snap1000
Ni     -54.09989610      -2.41293508      -3.53048098 snap1000
Mo     -46.33542886      -2.37240111      -3.52859614 snap1000
Ni     -38.58378411      -2.34526847      -3.53285426 snap1000
Ni     -30.81280583      -2.32773271      -3.48527057 snap1000
Ni     -22.92321871      -2.32399699      -3.55818314 snap1000
Ni     -15.09676412      -2.33401188      -3.53120415 snap1000
Ni      -7.23753877      -2.24419723      -3.50877724 snap1000
Ni    -100.79508346      -7.20810069      -1.78703009 snap1000
Mo     -92.88309454      -7.12348579      -1.74781714 snap1000
Ni     -85.06591445      -7.07868275      -1.78649035 snap1000
Ni     -97.56452399      -5.61732053      -1.75737520 snap1000
Cr     -89.75332181      -5.51998198      -1.75112567 snap1000
Ni     -81.92138097      -5.44206633      -1.78106108 snap1000
Ni    -102.28331942      -4.21920072      -1.82507163 snap1000
Ni     -94.42124259      -4.09223531      -1.75652087 snap1000
Ni     -86.61723447      -3.92199002      -1.79202958 snap1000
Ni     -99.10998187      -6.42419611      -3.54539944 snap1000
Ni     -91.28529589      -6.30781945      -3.52710684 snap1000
Ni     -83.47455147      -6.28163484      -3.51276952 snap1000
Ni     -96.02270178      -4.85835659      -3.51401511 snap1000
Ni     -88.16446771      -4.72256215      -3.48902508 snap1000
Ni     -80.33083027      -4.64875446      -3.51666391 snap1000
Cr     -98.32890989      -4.06810265      -3.51519909 snap1000
Ni     -90.48336904      -3.99481277      -3.50433482 snap1000
Ni     -82.67806912      -3.88375560      -3.51888710 snap1000
Cr     -95.29399191      -6.37776272      -1.74001076 snap1000
Ni     -87.41537161      -6.29346696      -1.77425878 snap1000
Ni     -79.69045720      -6.21412552      -1.75917965 snap1000
Ni     -99.88654262      -4.88606506      -1.78761916 snap1000
Ni     -92.05186805      -4.77439241      -1.75207651 snap1000
Ni     -84.25572471      -4.68144837      -1.80977759 snap1000
Ni     -96.79287804      -7.18494683      -3.53531522 snap1000
Ni     -88.97018796      -7.08558231      -3.48327158 snap1000
Ni     -81.13310053      -7.07048327      -3.51106852 snap1000
Cr    -101.32274780      -5.69722394      -3.53535725 snap1000
Fe     -93.65991592      -5.57137958      -3.54641560 snap1000
Cr     -85.81181782      -5.49289728      -3.46315589 snap1000
Ni     -77.07826047      -4.82609647      -3.49471308 snap1000
Ni     -69.10711870      -4.77816445      -3.55033822 snap1000
Ni     -61.27046860      -4.73323679      -3.48762042 snap1000
Ni     -53.35060605      -4.76167595      -3.55183351 snap1000
Ni     -45.57677248      -4.76167554      -3.48902862 snap1000
Ni     -37.80676683      -4.68763801      -3.51903199 snap1000
Ni     -30.01905145      -4.69802329      -3.49308076 snap1000
Ni     -22.17989363      -4.70638326      -3.58815749 snap1000
Ni     -14.32149192      -4.68845807      -3.55105549 snap1000
Ni      -6.48380796      -4.55475522      -3.52123821 snap1000
Ni     -73.78555565      -6.39416211      -3.47265427 snap1000
Ni     -65.93985511      -6.33387988      -3.58006523 snap1000
Ni     -58.13241689      -6.29359278      -3.49355291 snap1000
Ni     -50.23469138      -6.33899952      -3.55049513 snap1000
Ni     -42.42265711      -6.34217001      -3.51686733 snap1000
Fe     -34.68094370      -6.23937401      -3.51792701 snap1000
Ni     -26.92433473      -6.24796401      -3.49118171 snap1000
Ni     -19.00114797      -6.27900319      -3.50302929 snap1000
Ni     -11.23303069      -6.17776680      -3.54039175 snap1000
Cr      -3.40402227      -6.07642135      -3.44480435 snap1000
Ni     -78.72176445      -3.79824081      -1.84752571 snap1000
Ni     -70.68348403      -3.98967953      -1.80341148 snap1000
Ni     -62.79798855      -3.96890153      -1.74038272 snap1000
Ni     -54.86633397      -3.99588592      -1.74760324 snap1000
Ni     -47.13590736      -3.95142211      -1.73771414 snap1000
Ni     -39.33745956      -3.93217736      -1.75822460 snap1000
Ni     -31.58236927      -3.89369975      -1.78505408 snap1000
Mo     -23.70664906      -3.93603172      -1.76260567 snap1000
Ni     -15.85364066      -3.93457229      -1.76903324 snap1000
Ni      -8.07310299      -3.80562446      -1.76059570 snap1000
Cr     -75.31192992      -5.61867639      -1.79261183 snap1000
Mo     -67.53014638      -5.56948601      -1.75986837 snap1000
Cr     -59.69115898      -5.52324369      -1.76284141 snap1000
Mo     -51.78886137      -5.54787756      -1.77446468 snap1000
Ni     -43.99318649      -5.55315868      -1.72422468 snap1000
Ni     -36.26489012      -5.44249274      -1.76312021 snap1000
Ni     -28.47089120      -5.46355351      -1.77772592 snap1000
Mo     -20.62270786      -5.45108166      -1.76654598 snap1000
Ni     -12.79848217      -5.40528468      -1.76928692 snap1000
Ni      -4.90535790      -5.30313296      -1.76735506 snap1000
Ni     -72.24199448      -7.17472691      -1.74369199 snap1000
Mo     -64.38446787      -7.13844229      -1.75769327 snap1000
Mo     -56.51495806      -7.14518655      -1.76724639 snap1000
Ni     -48.70825799      -7.09554061      -1.77588060 snap1000
Ni     -40.87720900      -7.09699369      -1.75255281 snap1000
Ni     -33.08501078      -7.06482428      -1.79190981 snap1000
Ni     -25.30581722      -7.03224016      -1.76438379 snap1000
Cr     -17.43423948      -7.05996822      -1.76817672 snap1000
Ni      -9.61753621      -6.96426100      -1.75909582 snap1000
Mo      -1.43441969      -6.75619415      -1.62495132 snap1000
Ni     -74.65337172      -4.01459417      -3.48015459 snap1000
Ni     -66.74526113      -4.00755192      -3.55595270 snap1000
Ni     -58.92958518      -3.92722022      -3.48899866 snap1000
Ni     -51.01386442      -3.95783574      -3.55170406 snap1000
Mo     -43.22569291      -3.96523898      -3.52275414 snap1000
Cr     -35.49472023      -3.89668362      -3.52435474 snap1000
Ni     -27.69087292      -3.87948278      -3.46677624 snap1000
Ni     -19.84580901      -3.90770467      -3.57581472 snap1000
Ni     -12.00400363      -3.87499254      -3.54443493 snap1000
Ni      -4.15513975      -3.69239071      -3.50165292 snap1000
Ni     -71.47532944      -5.57091509      -3.51183802 snap1000
Ni     -63.58434214      -5.57497852      -3.54592212 snap1000
Ni     -55.68398981      -5.55374577      -3.52253381 snap1000
Ni     -47.92488900      -5.51204567      -3.50016672 snap1000
Ni     -40.12371220      -5.50475130      -3.52191551 snap1000
Cr     -32.32344378      -5.48047667      -3.51346679 snap1000
Ni     -24.50552250      -5.52382291      -3.54381650 snap1000
Ni     -16.64683728      -5.53452975      -3.51652683 snap1000
Ni      -8.84200466      -5.39026914      -3.53343856 snap1000
Ni      -1.20101667      -5.32806217      -3.52338295 snap1000
Ni     -76.08741778      -7.29095401      -3.50739915 snap1000
Ni     -68.32502563      -7.13507043      -3.55439178 snap1000
Ni     -60.47521331      -7.10447936      -3.49305509 snap1000
Ni     -52.57287934      -7.14548726      -3.54746865 snap1000
Ni     -44.75904146      -7.09510218      -3.49082050 snap1000
Ni     -37.06968202      -7.03470836      -3.51585646 snap1000
Cr     -29.22776611      -7.04887570      -3.51841995 snap1000
Ni     -21.38878264      -7.06897323      -3.53219252 snap1000
Ni     -13.57781630      -7.01668608      -3.54563675 snap1000
Ni      -5.66912914      -6.95447451      -3.53342914 snap1000
Ni     -73.05296266      -4.78220453      -1.78547844 snap1000
Ni     -65.15809349      -4.76610419      -1.71396887 snap1000
Ni     -57.32972460      -4.75212326      -1.76711276 snap1000
Ni     -49.45149996      -4.72414906      -1.75651871 snap1000
Ni     -41.65432315      -4.74984432      -1.72329113 snap1000
Ni     -33.92322817      -4.70058882      -1.80133527 snap1000
Ni     -26.09780614      -4.70233101      -1.76382679 snap1000
Ni     -18.22045748      -4.73647707      -1.76794745 snap1000
Ni     -10.41963146      -4.65958760      -1.76551725 snap1000
Ni      -2.60049504      -4.44236049      -1.83656831 snap1000
Ni     -77.47139977      -6.45068587      -1.82842453 snap1000
Ni     -69.91200266      -6.36686500      -1.77191720 snap1000
Ni     -62.00672466      -6.32823852      -1.75346994 snap1000
Ni     -54.13092585      -6.36318374      -1.76249117 snap1000
Cr     -46.37471985      -6.32268282      -1.76532277 snap1000
Cr     -38.58080214      -6.27208076      -1.76363919 snap1000
Ni     -30.76501791      -6.26613053      -1.80271353 snap1000
Ni     -22.95882552      -6.31436051      -1.76442481 snap1000
Fe     -15.10587637      -6.29350252      -1.76889184 snap1000
Mo      -7.24868631      -6.17479690      -1.76400466 snap1000
520
Lattice="0.0 0.0 -7.04 4e-16 -7.870959280799259 3.5200000000000014 -102.32247065039037 0.0 -6.3e-15" Properties=species:S:1:pos:R:3:frame_label:S:1 pbc="T T T"
Ni    -100.77826501      -3.43534129      -0.04110499 snap2000
Fe     -92.84447231      -3.24667535       0.00346907 snap2000
Mo     -84.96849164      -3.15264256       0.00560884 snap2000
Ni     -97.61964047      -1.72551629      -0.04024236 snap2000
Ni     -89.70196773      -1.57987450       0.00900229 snap2000
Ni     -81.90341803      -1.52362855       0.00646289 snap2000
Ni    -102.43169541      -0.06588665      -0.00519281 snap2000
Ni     -94.45813053      -0.05277483      -0.03321662 snap2000
Cr     -86.62312517      -0.00869482       0.00467703 snap2000
Ni     -99.17398875      -2.55711914      -1.75674826 snap2000
Mo     -91.24765980      -2.40638773      -1.75642274 snap2000
Ni     -83.40177076      -2.31250430      -1.75112765 snap2000
Ni     -96.04955582      -0.87252128      -1.75614501 snap2000
Ni     -88.17178350      -0.79360895      -1.71906812 snap2000
Ni     -80.28780809      -0.76125486      -1.75400427 snap2000
Cr     -98.36734001      -0.17850460      -1.72415690 snap2000
Ni     -90.49841717       0.01629041      -1.74948424 snap2000
Ni     -82.64976645       0.05447741      -1.71972792 snap2000
Mo     -95.23679300      -2.47616479      -0.00829886 snap2000
Ni     -87.37925945      -2.37145998       0.00926104 snap2000
Ni     -79.73674141      -2.36883445       0.00888929 snap2000
Ni    -100.00589272      -0.95233740      -0.07547105 snap2000
Ni     -92.08397415      -0.80533047      -0.01711162 snap2000
Ni     -84.23683550      -0.71970350       0.00832737 snap2000
Ni     -96.83148417      -3.31575274      -1.77433474 snap2000
Ni     -88.90362464      -3.19537034      -1.74453932 snap2000
Cr     -81.10110791      -3.13567736      -1.77107471 snap2000
Cr    -101.46570671      -1.86519152      -1.69493149 snap2000
Ni     -93.65311135      -1.63325902      -1.75133650 snap2000
Ni     -85.81862821      -1.54072236      -1.71031070 snap2000
Ni     -76.90631560      -0.94911808      -1.75355918 snap2000
Cr     -69.17574382      -0.81189261      -1.74706878 snap2000
Ni     -61.26918345      -0.83737863      -1.74371525 snap2000
Cr     -53.36610194      -0.81649677      -1.77004913 snap2000
Ni     -45.60246171      -0.80266930      -1.76085887 snap2000
Ni     -37.88516577      -0.78553325      -1.75965489 snap2000
Ni     -30.01468676      -0.75018321      -1.72987849 snap2000
Ni     -22.13747854      -0.75789664      -1.76289630 snap2000
Mo     -14.33265978      -0.71965259      -1.76254851 snap2000
Ni      -6.49204126      -0.55672095      -1.78319111 snap2000
Ni     -73.83440950      -2.45568394      -1.76238670 snap2000
Ni     -65.97370878      -2.43393741      -1.71037354 snap2000
Ni     -58.11817308      -2.37065663      -1.76203178 snap2000
Ni     -50.21869697      -2.40874978      -1.75608353 snap2000
Ni     -42.51181850      -2.32967647      -1.73839795 snap2000
Ni     -34.69685657      -2.35846780      -1.76641433 snap2000
Ni     -26.85310928      -2.34875288      -1.75977279 snap2000
Ni     -18.97557744      -2.38089151      -1.76186621 snap2000
Mo     -11.20446998      -2.28188134      -1.75871601 snap2000
Ni      -3.40712525      -2.11023022      -1.84432311 snap2000
Mo     -78.63738120      -0.03662579       0.00743890 snap2000
Ni     -70.71754084      -0.03832882      -0.00777958 snap2000
Ni     -62.82124246      -0.05830603      -0.02651519 snap2000
Ni     -54.91354493      -0.06299593       0.00204762 snap2000
Ni     -47.14062504      -0.03726868      -0.00258344 snap2000
Cr     -39.41494695       0.00683254      -0.00457878 snap2000
Ni     -31.56331028       0.03978698      -0.04100847 snap2000
Ni     -23.64310236       0.01783923      -0.00101133 snap2000
Ni     -15.89222599       0.06800071       0.02302159 snap2000
Ni      -8.07342487       0.19963294       0.01162042 snap2000
Ni     -75.29676605      -1.70618426       0.00533942 snap2000
Ni     -67.56638609      -1.61897995      -0.01649286 snap2000
Ni     -59.72190749      -1.61436252      -0.02026599 snap2000
Cr     -51.76400346      -1.61869394       0.00437846 snap2000
Ni     -44.06148563      -1.56369447      -0.00090241 snap2000
Ni     -36.27899039      -1.59250914      -0.00423076 snap2000
Ni     -28.45651652      -1.53207646      -0.04788470 snap2000
Ni     -20.55587276      -1.55975105       0.03460391 snap2000
Ni     -12.76682195      -1.51182951       0.03078987 snap2000
Ni      -4.93538126      -1.32097175      -0.00061604 snap2000
Ni     -72.33075039      -3.21704962       0.00043394 snap2000
Ni     -64.35058513      -3.20587090       0.00582486 snap2000
Mo     -56.50863985      -3.19265338      -0.01149427 snap2000
Ni     -48.64623082      -3.18313478      -0.00501913 snap2000
Ni     -40.98146516      -3.11444047       0.00410903 snap2000
Ni     -33.17450922      -3.12465074      -0.03416275 snap2000
Ni     -25.24850553      -3.14512965      -0.01165541 snap2000
Ni     -17.42522630      -3.14097331       0.00710414 snap2000
Ni      -9.64075090      -3.06220299       0.02315671 snap2000
Ni      -1.04548028      -2.67228564      -0.02233131 snap2000
Cr     -74.56885415      -0.11597114      -1.76363618 snap2000
Ni     -66.76634824      -0.04647436      -1.73304716 snap2000
Ni     -58.92765088      -0.04509318      -1.75870370 snap2000
Ni     -51.02173108      -0.09063619      -1.75626317 snap2000
Ni     -43.28220598       0.00879124      -1.77673187 snap2000
Mo     -35.53459895       0.03747297      -1.75855189 snap2000
Ni     -27.64973016       0.06919275      -1.73181228 snap2000
Mo     -19.75036507      -0.01047051      -1.77128113 snap2000
Ni     -11.95854942       0.12495594      -1.76581250 snap2000
Ni      -4.11875940       0.22751908      -1.77390256 snap2000
Ni     -71.49812637      -1.64106446      -1.77427782 snap2000
Ni     -63.59244995      -1.62580085      -1.72684349 snap2000
Ni     -55.67734839      -1.61343680      -1.76155028 snap2000
Ni     -47.88913585      -1.61499156      -1.76821629 snap2000
Ni     -40.19387647      -1.51877904      -1.75781534 snap2000
Cr     -32.37777685      -1.53367836      -1.75810969 snap2000
Ni     -24.43705803      -1.55167688      -1.77037880 snap2000
Ni     -16.69183053      -1.54037850      -1.76462641 snap2000
Ni      -8.83320960      -1.41708052      -1.79476994 snap2000
Ni      -1.27162713      -1.21496346      -1.76420809 snap2000
Ni     -76.15833043      -3.33439602      -1.72985076 snap2000
Ni     -68.34288232      -3.20368373      -1.75776269 snap2000
Ni     -60.50160419      -3.16477513      -1.74407744 snap2000
Ni     -52.56841501      -3.13865826      -1.76192350 snap2000
Ni     -44.85344257      -3.13335289      -1.73851800 snap2000
Ni     -37.00842331      -3.12316285      -1.75994035 snap2000
Cr     -29.22318117      -3.10744715      -1.77221544 snap2000
Ni     -21.30956049      -3.07490916      -1.76631347 snap2000
Ni     -13.56572375      -3.09887354      -1.76333524 snap2000
Ni      -5.75384065      -2.94515350      -1.78986025 snap2000
Ni     -73.04219131      -0.86102456       0.00170244 snap2000
Ni     -65.16946180      -0.83425038      -0.04412384 snap2000
Ni     -57.31748430      -0.82402747       0.00747669 snap2000
Fe     -49.44938016      -0.86610117      -0.00240383 snap2000
Ni     -41.71993346      -0.75728575      -0.00036146 snap2000
Ni     -33.91676772      -0.77636193      -0.03715161 snap2000
Mo     -26.02661988      -0.76177538      -0.00419048 snap2000
Ni     -18.19952852      -0.76693117       0.02065489 snap2000
Ni     -10.36478599      -0.67183039      -0.00053051 snap2000
Ni      -2.64146545      -0.54518139      -0.00339116 snap2000
Ni     -77.52430572      -2.47215390       0.00618637 snap2000
Mo     -69.94590778      -2.43622278       0.02072691 snap2000
Cr     -62.03180232      -2.40734487      -0.01849729 snap2000
Ni     -54.08643740      -2.37449402      -0.00848826 snap2000
Cr     -46.37842112      -2.36240487      -0.00453556 snap2000
Ni     -38.61376067      -2.31438878      -0.00242556 snap2000
Ni     -30.81563319      -2.33567822      -0.07256182 snap2000
Ni     -22.87971096      -2.32103777       0.02826765 snap2000
Ni     -15.11629567      -2.32128341       0.02317427 snap2000
Mo      -7.28549240      -2.18466594       0.00126643 snap2000
Ni    -100.83885501      -7.27510137       1.78212301 snap2000
Fe     -92.88081980      -7.10891759       1.76737581 snap2000
Ni     -85.01756427      -7.05935745       1.82068643 snap2000
Ni     -97.56876499      -5.64102291       1.79300461 snap2000
Ni     -89.69677944      -5.52165533       1.77071503 snap2000
Ni     -81.87089446      -5.44576972       1.79304603 snap2000
Ni    -102.35013847      -4.18822248       1.77863717 snap2000
Ni     -94.43596262      -4.05852820       1.76343057 snap2000
Fe     -86.60600680      -3.95724236       1.76803545 snap2000
Mo     -99.20859000      -6.41508072       0.06706606 snap2000
Ni     -91.28431548      -6.31205463       0.02030846 snap2000
Mo     -83.43350673      -6.25037719       0.00686070 snap2000
Ni     -96.03793467      -4.88674715       0.02175407 snap2000
Ni     -88.14833807      -4.75434385       0.00486602 snap2000
Ni     -80.20195351      -4.68902931       0.00555977 snap2000
Ni     -98.36554868      -4.07597365      -0.00146617 snap2000
Ni     -90.46782753      -4.00584547       0.00744059 snap2000
Ni     -82.56766210      -3.88513890       0.00748266 snap2000
Cr     -95.22148542      -6.38594538       1.76604196 snap2000
Ni     -87.37888536      -6.30943924       1.79938076 snap2000
Ni     -79.64841916      -6.23627191       1.75624052 snap2000
Ni     -99.98557174      -4.85286052       1.80448947 snap2000
Ni     -92.06820335      -4.79007804       1.76374903 snap2000
Ni     -84.20495124      -4.71834958       1.81113222 snap2000
Ni     -96.80759434      -7.21957226       0.03592052 snap2000
Ni     -88.96004645      -7.06712545       0.00169389 snap2000
Ni     -81.07329336      -7.06998645       0.00500558 snap2000
Ni    -101.64151806      -5.79056769       0.01674087 snap2000
Ni     -93.66593992      -5.57512543       0.03696691 snap2000
Ni     -85.81640318      -5.51421830       0.00707082 snap2000
Mo     -77.35208013      -4.94268189       0.00470046 snap2000
Ni     -69.10703275      -4.79844650       0.03025890 snap2000
Ni     -61.27512628      -4.74399875      -0.01479043 snap2000
Ni     -53.37422473      -4.75234737      -0.00468948 snap2000
Ni     -45.61610920      -4.72307373      -0.00582657 snap2000
Ni     -37.79360554      -4.71417211      -0.00410475 snap2000
Ni     -29.99689561      -4.65558330      -0.04638161 snap2000
Ni     -22.11246126      -4.70259349       0.05085964 snap2000
Ni     -14.33473548      -4.63990957       0.00567282 snap2000
Fe      -6.51456566      -4.56294071      -0.02251265 snap2000
Ni     -73.81661750      -6.38874627       0.00528587 snap2000
Ni     -65.99788826      -6.37493865       0.06729976 snap2000
Ni     -58.10596611      -6.29962641      -0.02310668 snap2000
Ni     -50.19973852      -6.37000504      -0.00314606 snap2000
Cr     -42.53206126      -6.31860962      -0.00196568 snap2000
Ni     -34.73110914      -6.22722700       0.00005009 snap2000
Ni     -26.85210785      -6.24442192      -0.03896629 snap2000
Ni     -18.94579390      -6.26389513      -0.00444723 snap2000
Ni     -11.17396303      -6.18028084       0.02201139 snap2000
Ni      -3.39080949      -6.04729317      -0.03820610 snap2000
Ni     -78.65969362      -3.86207453       1.82986799 snap2000
Ni     -70.72440189      -4.00240958       1.81858733 snap2000
Ni     -62.78863907      -3.98577576       1.73517117 snap2000
Ni     -54.89034100      -3.99931557       1.76315550 snap2000
Ni     -47.12460348      -3.94370254       1.75404840 snap2000
Mo     -39.38641508      -3.92413439       1.75228553 snap2000
Ni     -31.58974812      -3.90884553       1.79212465 snap2000
Ni     -23.66984157      -3.93163627       1.75761041 snap2000
Ni     -15.87431895      -3.88810797       1.74867184 snap2000
Ni      -8.06604197      -3.81877620       1.78025987 snap2000
Ni     -75.31465695      -5.60990910       1.74764735 snap2000
Cr     -67.56428406      -5.57039916       1.76844956 snap2000
Mo     -59.68885195      -5.51852900       1.75617255 snap2000
Mo     -51.77297618      -5.54890926       1.76038156 snap2000
Ni     -44.07732485      -5.52777709       1.72621849 snap2000
Ni     -36.28360095      -5.44143069       1.76046616 snap2000
Ni     -28.44120851      -5.46932885       1.79355675 snap2000
Ni     -20.53557230      -5.48795763       1.76115505 snap2000
Ni     -12.77471626      -5.40515003       1.75829096 snap2000
Mo      -4.96998802      -5.33048674       1.80938832 snap2000
Ni     -72.26299753      -7.15902966       1.78088917 snap2000
Cr     -64.37764880      -7.14763166       1.76511022 snap2000
Mo     -56.53748625      -7.12792844       1.75825922 snap2000
Ni     -48.68136389      -7.14046086       1.75473350 snap2000
Ni     -40.95736731      -7.08185516       1.74083820 snap2000
Ni     -33.13056340      -7.05019801       1.78600999 snap2000
Ni     -25.23035255      -7.05554906       1.75585458 snap2000
Ni     -17.38624111      -7.04545749       1.75851734 snap2000
Ni      -9.61766108      -6.96172464       1.74444067 snap2000
Mo      -1.47588703      -6.70032734       1.58368649 snap2000
Cr     -74.62124147      -4.05965947       0.00502374 snap2000
Ni     -66.76254951      -3.99688991       0.04290734 snap2000
Ni     -58.92526008      -3.93995224      -0.03503407 snap2000
Ni     -50.98489421      -3.93732084      -0.00490868 snap2000
Ni     -43.29069513      -3.93810203       0.00412034 snap2000
Cr     -35.47948836      -3.91103761      -0.00628795 snap2000
Ni     -27.65387518      -3.89711354      -0.05669303 snap2000
Ni     -19.74985999      -3.89896876       0.02544834 snap2000
Ni     -12.00156941      -3.86637072       0.03410801 snap2000
Mo      -4.04930754      -3.61288916      -0.05678909 snap2000
Mo     -71.46896222      -5.57144816       0.00481379 snap2000
Ni     -63.60996808      -5.57680445       0.03015584 snap2000
Ni     -55.70120256      -5.57641476      -0.03031943 snap2000
Ni     -47.89806701      -5.54689683      -0.00491732 snap2000
Ni     -40.17997905      -5.55476175      -0.00088318 snap2000
Mo     -32.35004720      -5.47337103      -0.00733045 snap2000
Ni     -24.44156576      -5.52898639       0.01025592 snap2000
Cr     -16.62735156      -5.45702721      -0.01681940 snap2000
Ni      -8.82634863      -5.39817986      -0.00552201 snap2000
Cr      -1.38953298      -4.88342162      -0.00978002 snap2000
Ni     -76.11043323      -7.22335314       0.00061483 snap2000
Ni     -68.36330959      -7.13493603       0.05000725 snap2000
Ni     -60.50967888      -7.12432445       0.00727267 snap2000
Fe     -52.59359069      -7.16701298      -0.00681149 snap2000
Ni     -44.83399817      -7.09523089      -0.00458476 snap2000
Ni     -37.11297207      -7.06570375      -0.00786283 snap2000
Mo     -29.23764940      -7.02684384      -0.00199944 snap2000
Ni     -21.34807785      -7.07557624       0.00260304 snap2000
Fe     -13.55479869      -6.95858613      -0.00749346 snap2000
Ni      -5.74529501      -6.88610506      -0.03126420 snap2000
Ni     -73.04904452      -4.79427470       1.78736411 snap2000
Ni     -65.17760024      -4.80098179       1.72733723 snap2000
Ni     -57.29837685      -4.75189264       1.76077889 snap2000
Ni     -49.40957482      -4.75961725       1.75783524 snap2000
Ni     -41.74690137      -4.73346382       1.72038240 snap2000
Ni     -33.96300925      -4.67262991       1.77461248 snap2000
Mo     -26.06601641      -4.70614118       1.75998605 snap2000
Ni     -18.18706213      -4.71553658       1.74900665 snap2000
Ni     -10.39356730      -4.63370975       1.76776852 snap2000
Ni      -2.57940614      -4.39002579       1.85770334 snap2000
Ni     -77.45182918      -6.48735831       1.87265731 snap2000
Ni     -69.90712576      -6.35174584       1.79809557 snap2000
Ni     -62.07655974      -6.35130224       1.75505315 snap2000
Ni     -54.15744727      -6.36213802       1.75739636 snap2000
Fe     -46.39149431      -6.32266994       1.75069308 snap2000
Ni     -38.62637734      -6.32984619       1.76259482 snap2000
Ni     -30.76945063      -6.24259430       1.81972991 snap2000
Cr     -22.89795688      -6.29659964       1.75407652 snap2000
Ni     -15.10772605      -6.19755122       1.73961814 snap2000
Ni      -7.32381776      -6.13822147       1.76275555 snap2000
Ni    -100.80127042      -3.31975435      -3.47842147 snap2000
Ni     -92.85142611      -3.24399522      -3.51007829 snap2000
Mo     -85.01890838      -3.10572834      -3.51203229 snap2000
Ni     -97.62892891      -1.71592735      -3.48457835 snap2000
Ni     -89.68475316      -1.56221863      -3.51376194 snap2000
Ni     -81.91104707      -1.51569473      -3.51372911 snap2000
Ni    -102.30378952      -0.31203551      -3.49591789 snap2000
Ni     -94.45935632      -0.05027142      -3.47479321 snap2000
Mo     -86.60947090      -0.00552338      -3.51196087 snap2000
Ni     -99.14523010      -2.57479564      -5.27553008 snap2000
Mo     -91.27592158      -2.38116569      -5.26927387 snap2000
Ni     -83.39883449      -2.31122112      -5.27557327 snap2000
Ni     -96.01193079      -0.86994017      -5.27719732 snap2000
Ni     -88.15786653      -0.79111730      -5.30855534 snap2000
Ni     -80.29140922      -0.76181930      -5.27366583 snap2000
Mo     -98.40598872      -0.19486202      -5.33024808 snap2000
Ni     -90.48148932       0.02327001      -5.27511289 snap2000
Ni     -82.65056804       0.05457749      -5.30786779 snap2000
Mo     -95.23725307      -2.46998182      -3.50080594 snap2000
Ni     -87.39561064      -2.38289734      -3.51342945 snap2000
Ni     -79.72466596      -2.32660669      -3.51807663 snap2000
Ni     -99.96936548      -0.99831512      -3.45466014 snap2000
Ni     -92.08358972      -0.80246766      -3.48793811 snap2000
Ni     -84.22269650      -0.73816850      -3.51425029 snap2000
Ni     -96.82225383      -3.28991626      -5.25791897 snap2000
Ni     -88.90496622      -3.17366067      -5.28003324 snap2000
Cr     -81.10242011      -3.13613778      -5.25763503 snap2000
Mo    -101.44044233      -1.83847993      -5.34648969 snap2000
Ni     -93.65193051      -1.65027441      -5.27450947 snap2000
Ni     -85.81333660      -1.54055469      -5.31471493 snap2000
Ni     -76.91287765      -0.94026964      -5.27788439 snap2000
Ni     -69.14143529      -0.81368170      -5.28269773 snap2000
Ni     -61.30209437      -0.83519392      -5.29401322 snap2000
Ni     -53.33458885      -0.83256113      -5.28723242 snap2000
Ni     -45.60276075      -0.80578858      -5.28968142 snap2000
Ni     -37.87933559      -0.78309494      -5.28545493 snap2000
Ni     -30.00098049      -0.73172185      -5.32407054 snap2000
Cr     -22.08960256      -0.76888961      -5.28316209 snap2000
Ni     -14.35045258      -0.72801303      -5.27942470 snap2000
Ni      -6.51893768      -0.57678183      -5.25195390 snap2000
Ni     -73.82848753      -2.45366427      -5.26812413 snap2000
Ni     -65.94451061      -2.40432699      -5.33117449 snap2000
Ni     -58.14435015      -2.41910512      -5.28139692 snap2000
Ni     -50.21814668      -2.41554008      -5.28905003 snap2000
Cr     -42.50063305      -2.31336342      -5.33095528 snap2000
Ni     -34.71584551      -2.37168333      -5.27868543 snap2000
Ni     -26.85981500      -2.33043956      -5.28911751 snap2000
Ni     -18.97175089      -2.34670033      -5.28532315 snap2000
Ni     -11.19295183      -2.30189013      -5.27542816 snap2000
Ni      -3.45714207      -2.12484616      -5.20298010 snap2000
Mo     -78.58723204       0.01825405      -3.51376395 snap2000
Ni     -70.68730084      -0.07691673      -3.50603588 snap2000
Ni     -62.82910531      -0.06569890      -3.48843664 snap2000
Ni     -54.91918769      -0.06471979      -3.53267649 snap2000
Ni     -47.13963580      -0.04723613      -3.52770489 snap2000
Cr     -39.41351676      -0.00521999      -3.52075321 snap2000
Ni     -31.57969197       0.02567939      -3.48336002 snap2000
Ni     -23.65030232       0.01727794      -3.52979776 snap2000
Ni     -15.89415380       0.07014872      -3.55418815 snap2000
Cr      -8.05017898       0.17035226      -3.52248590 snap2000
Ni     -75.30510173      -1.66248757      -3.51532184 snap2000
Mo     -67.52364312      -1.62965139      -3.52666132 snap2000
Ni     -59.71059350      -1.61132960      -3.50042312 snap2000
Ni     -51.78682884      -1.60971588      -3.51393851 snap2000
Ni     -44.06253447      -1.55999563      -3.53246740 snap2000
Ni     -36.27824126      -1.58538861      -3.52058557 snap2000
Ni     -28.44761351      -1.54136053      -3.47897791 snap2000
Ni     -20.55100015      -1.56497921      -3.56607375 snap2000
Ni     -12.77215079      -1.51502672      -3.54907616 snap2000
Ni      -4.98813797      -1.33140305      -3.51707539 snap2000
Ni     -72.28850829      -3.22552541      -3.51198722 snap2000
Mo     -64.40152831      -3.20613849      -3.52335684 snap2000
Mo     -56.49813061      -3.19324125      -3.51360568 snap2000
Ni     -48.63879607      -3.18270748      -3.52349893 snap2000
Ni     -40.96066694      -3.09265236      -3.53329117 snap2000
Ni     -33.16319593      -3.12120084      -3.48834811 snap2000
Ni     -25.24919059      -3.13448446      -3.51905847 snap2000
Fe     -17.43295072      -3.12356714      -3.54408556 snap2000
Ni      -9.62865590      -3.04893432      -3.54275984 snap2000
Mo      -1.40531347      -2.86157990      -3.48476128 snap2000
Cr     -74.57055568      -0.11587234      -5.26551498 snap2000
Ni     -66.76504904      -0.06146112      -5.31761442 snap2000
Mo     -58.92472058      -0.02780775      -5.28111667 snap2000
Ni     -51.00197562      -0.08850301      -5.29010829 snap2000
Ni     -43.28180693      -0.00367763      -5.27527546 snap2000
Mo     -35.50608782       0.02070548      -5.28631164 snap2000
Ni     -27.67440493       0.03652691      -5.31745728 snap2000
Ni     -19.76235227       0.01448659      -5.29183684 snap2000
Mo     -11.96564503       0.10826028      -5.28168087 snap2000
Ni      -4.13776192       0.23395129      -5.27197951 snap2000
Ni     -71.51312705      -1.63207193      -5.25111703 snap2000
Ni     -63.58792872      -1.63969751      -5.31462707 snap2000
Ni     -55.70544044      -1.60393700      -5.28600811 snap2000
Ni     -47.89162048      -1.61792760      -5.28103152 snap2000
Ni     -40.19672925      -1.52474789      -5.28966580 snap2000
Mo     -32.35211628      -1.54720798      -5.28691457 snap2000
Ni     -24.43226177      -1.56583181      -5.28002246 snap2000
Ni     -16.65947597      -1.54654712      -5.28794084 snap2000
Ni      -8.86186167      -1.42197356      -5.24704007 snap2000
Ni      -1.33310293      -1.23534777      -5.26899830 snap2000
Ni     -76.15602845      -3.33232846      -5.29783312 snap2000
Ni     -68.32900559      -3.22743652      -5.27737244 snap2000
Ni     -60.49323703      -3.14128219      -5.29435676 snap2000
Ni     -52.56909200      -3.16150934      -5.27786189 snap2000
Ni     -44.83762850      -3.14038738      -5.30683284 snap2000
Ni     -37.01802144      -3.12309228      -5.28479056 snap2000
Mo     -29.22556037      -3.10358683      -5.28094030 snap2000
Ni     -21.32545843      -3.10809987      -5.28522863 snap2000
Cr     -13.54822985      -3.07883912      -5.28791760 snap2000
Ni      -5.74369475      -2.94656269      -5.25079919 snap2000
Ni     -73.04264639      -0.84294463      -3.51060793 snap2000
Ni     -65.16800899      -0.82255625      -3.47483216 snap2000
Ni     -57.31635130      -0.82415997      -3.53102201 snap2000
Fe     -49.44259000      -0.85955267      -3.52576990 snap2000
Ni     -41.73392165      -0.76324297      -3.52742258 snap2000
Ni     -33.91215766      -0.75910786      -3.48797327 snap2000
Mo     -26.05415609      -0.74810995      -3.52532301 snap2000
Ni     -18.18937475      -0.77245573      -3.55435291 snap2000
Fe     -10.38724126      -0.66528209      -3.51837128 snap2000
Ni      -2.63587576      -0.48373195      -3.51925075 snap2000
Ni     -77.49881713      -2.47448904      -3.51767318 snap2000
Ni     -69.91987542      -2.40859962      -3.51493526 snap2000
Fe     -62.02365332      -2.40434605      -3.50224387 snap2000
Ni     -54.11051602      -2.38967020      -3.52859150 snap2000
Cr     -46.35229987      -2.38444359      -3.52262185 snap2000
Ni     -38.60095046      -2.31351346      -3.52327786 snap2000
Ni     -30.78903725      -2.30749077      -3.45567740 snap2000
Ni     -22.87259690      -2.32177483      -3.55843697 snap2000
Ni     -15.11554167      -2.32126594      -3.55622158 snap2000
Fe      -7.31268188      -2.16591560      -3.52160837 snap2000
Ni    -100.83725958      -7.25190194      -1.77136927 snap2000
Mo     -92.88740468      -7.12725735      -1.75371251 snap2000
Ni     -85.01863919      -7.06104700      -1.80689304 snap2000
Ni     -97.59827878      -5.64774407      -1.78551097 snap2000
Cr     -89.72366770      -5.51410254      -1.75051285 snap2000
Ni     -81.86894955      -5.44536301      -1.78059324 snap2000
Ni    -102.33408351      -4.19349691      -1.77567265 snap2000
Ni     -94.42145046      -4.08196541      -1.74942009 snap2000
Ni     -86.59490533      -3.95751368      -1.75270365 snap2000
Ni     -99.14428280      -6.46337371      -3.57536424 snap2000
Ni     -91.27245387      -6.31328346      -3.52575483 snap2000
Cr     -83.40786708      -6.25566412      -3.51274131 snap2000
Ni     -96.02801193      -4.86583208      -3.52405033 snap2000
Ni     -88.15094326      -4.74267933      -3.50737905 snap2000
Ni     -80.25001962      -4.67845624      -3.51578369 snap2000
Cr     -98.39658339      -4.08795287      -3.50797263 snap2000
Ni     -90.46162758      -4.00373187      -3.51478097 snap2000
Ni     -82.60501308      -3.89143139      -3.51473417 snap2000
Ni     -95.26379535      -6.39060493      -1.75417495 snap2000
Ni     -87.39052886      -6.29915099      -1.78413534 snap2000
Ni     -79.64049825      -6.23364795      -1.74859697 snap2000
Ni     -99.95047390      -4.90835877      -1.79778091 snap2000
Ni     -92.04422209      -4.78971400      -1.75463241 snap2000
Ni     -84.20530307      -4.72048091      -1.79909779 snap2000
Ni     -96.78993725      -7.20452640      -3.55602652 snap2000
Fe     -88.94280389      -7.07031653      -3.51413215 snap2000
Ni     -81.08813141      -7.05125798      -3.51414137 snap2000
Cr    -101.34612340      -5.72666940      -3.52749354 snap2000
Ni     -93.66223929      -5.57745568      -3.54616658 snap2000
Ni     -85.80793034      -5.53240623      -3.51304662 snap2000
Cr     -77.06125768      -4.84550067      -3.50876250 snap2000
Ni     -69.12552811      -4.78153122      -3.54528975 snap2000
Fe     -61.28732605      -4.73333130      -3.50501698 snap2000
Cr     -53.41184860      -4.73962552      -3.52274082 snap2000
Ni     -45.63083137      -4.72815131      -3.52200721 snap2000
Ni     -37.80456993      -4.71411570      -3.52123341 snap2000
Ni     -30.00310143      -4.67423215      -3.48252231 snap2000
Ni     -22.11022287      -4.70836028      -3.57992720 snap2000
Fe     -14.32277190      -4.63629102      -3.53853887 snap2000
Ni      -6.56689563      -4.55202201      -3.48102862 snap2000
Ni     -73.78435134      -6.38784889      -3.51808549 snap2000
Ni     -65.95664983      -6.34800854      -3.58678904 snap2000
Ni     -58.10737177      -6.29902562      -3.49809547 snap2000
Ni     -50.20611943      -6.37997051      -3.52504353 snap2000
Fe     -42.52892726      -6.33116709      -3.52323826 snap2000
Ni     -34.71904766      -6.22685249      -3.52619369 snap2000
Ni     -26.87335428      -6.25585060      -3.49370014 snap2000
Cr     -18.91870179      -6.25551038      -3.52867638 snap2000
Ni     -11.17417157      -6.18129286      -3.54328144 snap2000
Ni      -3.37816027      -6.12032904      -3.48937123 snap2000
Ni     -78.66052650      -3.85875295      -1.82384598 snap2000
Ni     -70.70229180      -4.00974324      -1.80988040 snap2000
Ni     -62.81404270      -3.99495040      -1.73661022 snap2000
Ni     -54.87697321      -3.98862787      -1.77054981 snap2000
Ni     -47.12499046      -3.94771809      -1.76179432 snap2000
Mo     -39.37983958      -3.92286563      -1.75878009 snap2000
Ni     -31.58228795      -3.87603452      -1.79178303 snap2000
Mo     -23.64940849      -3.94218969      -1.76782766 snap2000
Ni     -15.88295565      -3.88020324      -1.75962528 snap2000
Ni      -8.11699547      -3.80806467      -1.77666753 snap2000
Ni     -75.31124918      -5.60985981      -1.74365507 snap2000
Mo     -67.54034184      -5.57954784      -1.76188981 snap2000
Ni     -59.71782706      -5.50387079      -1.76204481 snap2000
Mo     -51.78144621      -5.55109300      -1.76882621 snap2000
Ni     -44.08264958      -5.53483426      -1.72875800 snap2000
Ni     -36.28424524      -5.45085632      -1.76557485 snap2000
Ni     -28.44148368      -5.46235524      -1.79966763 snap2000
Mo     -20.56109714      -5.46128775      -1.75524539 snap2000
Ni     -12.75574216      -5.39233668      -1.75748382 snap2000
Ni      -4.96307965      -5.29549746      -1.77377077 snap2000
Ni     -72.27666995      -7.16066423      -1.77267233 snap2000
Mo     -64.39795320      -7.14407306      -1.75986287 snap2000
Ni     -56.49934813      -7.13156205      -1.76205583 snap2000
Ni     -48.67705966      -7.13954183      -1.76311626 snap2000
Ni     -40.95928266      -7.08738800      -1.74632527 snap2000
Ni     -33.14007682      -7.03501150      -1.79479633 snap2000
Ni     -25.24983435      -7.03985511      -1.76735689 snap2000
Ni     -17.43039440      -7.02738969      -1.76545631 snap2000
Ni      -9.58461911      -6.94754768      -1.74823390 snap2000
Mo      -1.36677188      -6.71827260      -1.57573688 snap2000
Fe     -74.63845591      -4.03407388      -3.51556716 snap2000
Ni     -66.75518052      -4.02149190      -3.55400986 snap2000
Ni     -58.92902306      -3.94088406      -3.48608125 snap2000
Ni     -50.99672497      -3.94919067      -3.52121847 snap2000
Mo     -43.28322692      -3.94339550      -3.51179036 snap2000
Cr     -35.50533938      -3.90115726      -3.51837108 snap2000
Ni     -27.64980005      -3.88543560      -3.47415009 snap2000
Ni     -19.75370634      -3.91679776      -3.55362344 snap2000
Ni     -11.98876566      -3.86694994      -3.55810664 snap2000
Ni      -4.18534883      -3.69343713      -3.49027480 snap2000
Cr     -71.49086191      -5.57792257      -3.51728326 snap2000
Ni     -63.60276054      -5.57927764      -3.54609988 snap2000
Ni     -55.70091442      -5.57270560      -3.49546296 snap2000
Fe     -47.90553269      -5.54666900      -3.52324125 snap2000
Ni     -40.20733529      -5.52901655      -3.52288891 snap2000
Ni     -32.37604305      -5.45883220      -3.51623649 snap2000
Ni     -24.44857897      -5.53188000      -3.54106884 snap2000
Ni     -16.64143720      -5.45452414      -3.52172472 snap2000
Cr      -8.87206318      -5.37836783      -3.52871067 snap2000
Ni      -1.16995420      -5.32998389      -3.51932236 snap2000
Ni     -76.02161820      -7.27216693      -3.50722861 snap2000
Ni     -68.34171825      -7.15158111      -3.56294149 snap2000
Ni     -60.51114255      -7.11458410      -3.52645894 snap2000
Ni     -52.59500523      -7.17306827      -3.53209409 snap2000
Fe     -44.83266666      -7.08404957      -3.52489293 snap2000
Ni     -37.10351209      -7.06287333      -3.51708357 snap2000
Cr     -29.20164117      -7.04049533      -3.52361651 snap2000
Ni     -21.33280259      -7.06959434      -3.53126760 snap2000
Ni     -13.54798294      -6.97008780      -3.51832067 snap2000
Ni      -5.75354605      -6.90533210      -3.48082791 snap2000
Ni     -73.04350639      -4.79425254      -1.78031842 snap2000
Ni     -65.17435569      -4.77772717      -1.71780115 snap2000
Ni     -57.31688482      -4.77435160      -1.76298959 snap2000
Ni     -49.41503936      -4.75729139      -1.76697111 snap2000
Ni     -41.74174340      -4.74571926      -1.71962460 snap2000
Ni     -33.96965423      -4.67739516      -1.77883214 snap2000
Ni     -26.05062010      -4.70509142      -1.77191311 snap2000
Ni     -18.17837002      -4.69472493      -1.76666284 snap2000
Ni     -10.40953112      -4.65595892      -1.76896990 snap2000
Ni      -2.58331477      -4.43135370      -1.86203664 snap2000
Fe     -77.45636874      -6.47293533      -1.84982414 snap2000
Ni     -69.92584953      -6.36459838      -1.79747056 snap2000
Ni     -62.03249129      -6.34445172      -1.75371292 snap2000
Ni     -54.15432514      -6.36058543      -1.77270252 snap2000
Ni     -46.38480688      -6.32335360      -1.76184069 snap2000
Ni     -38.63338938      -6.32830658      -1.76749101 snap2000
Ni     -30.78443477      -6.26454567      -1.82500292 snap2000
Ni     -22.89699517      -6.33618865      -1.76805506 snap2000
Ni     -15.10104337      -6.21399820      -1.75387389 snap2000
Cr      -7.29573933      -6.12438245      -1.76092965 snap2000
520
Lattice="0.0 0.0 -7.04 4e-16 -7.870959280799259 3.5200000000000014 -102.32247065039037 0.0 -6.3e-15" Properties=species:S:1:pos:R:3:frame_label:S:1 pbc="T T T"
Ni    -100.75491700      -3.42024770      -0.03762018 final
Ni     -92.85010145      -3.23981377       0.00320841 final
Mo     -84.96928232      -3.15236762       0.00688539 final
Ni     -97.63292599      -1.71736899      -0.00180690 final
Ni     -89.70361696      -1.58021387       0.00844350 final
Ni     -81.90162049      -1.51466279       0.00644786 final
Ni    -102.43180173      -0.05299194      -0.00906473 final
Ni     -94.47464528      -0.05501895      -0.03395630 final
Cr     -86.62566199      -0.01186847       0.00713352 final
Cr     -99.16100472      -2.53506792      -1.74178182 final
Mo     -91.25599837      -2.39921789      -1.75777791 final
Ni     -83.39829331      -2.31299940      -1.75115764 final
Fe     -96.07890278      -0.88916413      -1.75227160 final
Ni     -88.17639216      -0.79706103      -1.72741259 final
Ni     -80.29122049      -0.75962696      -1.74798478 final
Ni     -98.40507569      -0.16521205      -1.74403905 final
Ni     -90.49155736       0.02662313      -1.75163195 final
Ni     -82.64446564       0.05076736      -1.71650530 final
Mo     -95.24798989      -2.47567733      -0.00295130 final
Ni     -87.37968545      -2.37259196       0.00668540 final
Ni     -79.73838346      -2.37425976       0.00884648 final
Ni     -99.97642617      -0.95301261      -0.04252552 final
Ni     -92.08283691      -0.80090604      -0.01570613 final
Ni     -84.22918516      -0.72135109       0.00637768 final
Ni     -96.85958149      -3.31546054      -1.77176168 final
Ni     -88.90522343      -3.19700806      -1.74789557 final
Cr     -81.09742698      -3.14148423      -1.76975948 final
Cr    -101.43973866      -1.84570750      -1.68784800 final
Ni     -93.66383466      -1.62850126      -1.75727395 final
Ni     -85.81487453      -1.54274160      -1.71059486 final
Ni     -76.89400337      -0.95063631      -1.75770869 final
Cr     -69.12758940      -0.86055921      -1.75426340 final
Ni     -61.26188710      -0.79394797      -1.75781643 final
Ni     -53.32380899      -0.84194038      -1.79560023 final
Ni     -45.61369229      -0.77761955      -1.76544254 final
Ni     -37.88539711      -0.78042862      -1.76379442 final
Ni     -30.00905425      -0.75261114      -1.72966160 final
Ni     -22.12093387      -0.78011061      -1.76571971 final
Mo     -14.33134839      -0.71581312      -1.75640874 final
Ni      -6.49463652      -0.55962460      -1.77601087 final
Ni     -73.81546794      -2.45757428      -1.77010754 final
Ni     -65.97896404      -2.42888756      -1.70918075 final
Ni     -58.09922158      -2.37482202      -1.76183061 final
Ni     -50.22404528      -2.41493390      -1.75413639 final
Ni     -42.50279537      -2.30839360      -1.76123178 final
Ni     -34.69633154      -2.35622904      -1.76681138 final
Ni     -26.84417221      -2.35019131      -1.76002835 final
Ni     -18.98508341      -2.37598822      -1.76556394 final
Mo     -11.20605069      -2.27839853      -1.76264872 final
Ni      -3.39543900      -2.10615812      -1.83593780 final
Mo     -78.61047711      -0.04028446       0.00575151 final
Ni     -70.69652404      -0.06008532      -0.03134884 final
Ni     -62.83316872      -0.04605214      -0.02744644 final
Mo     -54.93694785      -0.04691798      -0.00731476 final
Fe     -47.15501943      -0.03236334      -0.00427423 final
Cr     -39.41794838       0.00362792      -0.00087020 final
Ni     -31.56150423       0.03606912      -0.04033952 final
Ni     -23.63758862       0.01589410      -0.00566730 final
Ni     -15.89598937       0.06613793       0.02950452 final
Ni      -8.07291457       0.18197411       0.00439215 final
Ni     -75.29914250      -1.70371852       0.00488925 final
Ni     -67.54672215      -1.63714954      -0.03151789 final
Ni     -59.71119468      -1.60488495       0.01318283 final
Ni     -51.77123799      -1.62012526       0.00232095 final
Ni     -44.06793613      -1.52520530      -0.00247974 final
Ni     -36.27615687      -1.58743351      -0.00466668 final
Ni     -28.45054710      -1.53473897      -0.04781037 final
Ni     -20.55121387      -1.56986695       0.03995008 final
Ni     -12.75401371      -1.51524332       0.04338516 final
Ni      -4.93249772      -1.32555736      -0.00523543 final
Ni     -72.31263014      -3.19776215       0.00047656 final
Cr     -64.41066360      -3.19832216       0.00816612 final
Mo     -56.49299500      -3.18135417      -0.00873115 final
Cr     -48.64561825      -3.18751064      -0.00141866 final
Ni     -40.95038852      -3.10207836      -0.00121670 final
Ni     -33.17248917      -3.12316063      -0.03332963 final
Ni     -25.23844725      -3.14444226      -0.00619200 final
Fe     -17.42540679      -3.12679169       0.01095777 final
Ni      -9.64327455      -3.06492013       0.02116292 final
Ni      -1.00941491      -2.65432809      -0.02247558 final
Cr     -74.57247195      -0.11172736      -1.75794930 final
Ni     -66.76814791      -0.06554221      -1.75958935 final
Ni     -58.89792058      -0.05012916      -1.76452882 final
Ni     -50.99819770      -0.10408354      -1.76625780 final
Fe     -43.29563128       0.00723789      -1.76588033 final
Mo     -35.53468641       0.04157120      -1.75883883 final
Ni     -27.64310906       0.06701234      -1.73267972 final
Mo     -19.73662155       0.00031924      -1.76489255 final
Ni     -11.96069941       0.13647039      -1.76170667 final
Cr      -4.11549847       0.23235283      -1.76684028 final
Ni     -71.48875211      -1.64338952      -1.75203572 final
Ni     -63.60943285      -1.62852500      -1.72985103 final
Ni     -55.67658013      -1.59708708      -1.80069445 final
Ni     -47.91515175      -1.61806815      -1.75652169 final
Ni     -40.19215357      -1.51684081      -1.75236476 final
Cr     -32.37544429      -1.53478460      -1.75791266 final
Ni     -24.43061364      -1.54940649      -1.76974525 final
Ni     -16.67865586      -1.53559463      -1.77826852 final
Ni      -8.82177407      -1.41471155      -1.78818139 final
Ni      -1.26227552      -1.21088156      -1.76403021 final
Ni     -76.14514754      -3.33456369      -1.72527067 final
Ni     -68.32080890      -3.20344239      -1.72974037 final
Mo     -60.51789672      -3.17313318      -1.75762704 final
Ni     -52.55816205      -3.15770836      -1.77366517 final
Ni     -44.87306793      -3.12706119      -1.76766074 final
Ni     -37.00607522      -3.11862129      -1.76070387 final
Cr     -29.21828691      -3.11067092      -1.77206373 final
Fe     -21.30597381      -3.08513111      -1.76584051 final
Ni     -13.56695613      -3.10097903      -1.76882121 final
Ni      -5.74620035      -2.93504810      -1.78366589 final
Ni     -73.05664867      -0.86269601      -0.00035533 final
Ni     -65.19480551      -0.84010589      -0.03275767 final
Ni     -57.32090382      -0.81796591      -0.02527839 final
Ni     -49.45918591      -0.87048095      -0.00361922 final
Cr     -41.74429854      -0.76342141       0.00476575 final
Ni     -33.91446264      -0.77525069      -0.03621567 final
Mo     -26.02210157      -0.76334340      -0.00383896 final
Fe     -18.19567693      -0.77365494       0.01950357 final
Ni     -10.36879248      -0.67490902       0.00053346 final
Ni      -2.63314332      -0.52232796       0.00791106 final
Ni     -77.52488042      -2.47621110       0.00268504 final
Ni     -69.92181840      -2.42867273      -0.03555154 final
Ni     -62.07020272      -2.39471623       0.02251180 final
Ni     -54.08509743      -2.39697187       0.00203743 final
Ni     -46.38590541      -2.37112242      -0.00326381 final
Ni     -38.60087837      -2.30815953      -0.00358925 final
Ni     -30.81258654      -2.33843269      -0.07147781 final
Ni     -22.86487976      -2.32647929       0.04102566 final
Ni     -15.12216466      -2.31683775       0.02436511 final
Mo      -7.29197547      -2.17962650       0.00426563 final
Ni    -100.82482783      -7.27866485       1.77972085 final
Ni     -92.89213952      -7.12044958       1.76593676 final
Ni     -85.01756785      -7.06375973       1.82034964 final
Ni     -97.59051605      -5.65575798       1.78851105 final
Cr     -89.69202423      -5.51075442       1.77108657 final
Ni     -81.87310389      -5.45210022       1.79295653 final
Ni    -102.33484371      -4.20327182       1.78651308 final
Ni     -94.44980850      -4.06288366       1.76677060 final
Ni     -86.59722623      -3.95649094       1.76828305 final
Mo     -99.19194186      -6.46586932       0.01133655 final
Ni     -91.27617659      -6.31090672       0.02634631 final
Mo     -83.43154615      -6.25152653       0.00599682 final
Fe     -96.04601492      -4.90271180       0.01700520 final
Fe     -88.16077778      -4.76070660       0.00598062 final
Ni     -80.19822223      -4.69640756       0.00808396 final
Ni     -98.37310072      -4.07953104      -0.00279159 final
Ni     -90.45965985      -4.00816502       0.01436049 final
Ni     -82.56650219      -3.88320152       0.00578352 final
Cr     -95.24862066      -6.39165104       1.76915576 final
Ni     -87.38691724      -6.30405085       1.80014671 final
Ni     -79.65703950      -6.24419754       1.77517078 final
Ni     -99.96335531      -4.86884942       1.78340121 final
Ni     -92.05067355      -4.79463800       1.76901204 final
Ni     -84.20473876      -4.71515405       1.80811621 final
Ni     -96.81338059      -7.22717575       0.01653278 final
Ni     -88.96367804      -7.06280155       0.00848701 final
Ni     -81.06887618      -7.07416735       0.00632651 final
Ni    -101.59100126      -5.78941116       0.00860020 final
Ni     -93.66854771      -5.57795413       0.03827511 final
Ni     -85.81854580      -5.51043439       0.00665920 final
Mo     -77.33448047      -4.92991042       0.00867310 final
Ni     -69.08442982      -4.76995947      -0.00153731 final
Ni     -61.28470875      -4.76603217       0.02259049 final
Ni     -53.36817733      -4.74712828      -0.00390668 final
Fe     -45.65393451      -4.74703381      -0.00054353 final
Ni     -37.79524469      -4.71120175      -0.00516632 final
Ni     -29.99320498      -4.65985304      -0.04670816 final
Ni     -22.10089122      -4.70230848       0.04960571 final
Ni     -14.31800480      -4.64394275       0.01634939 final
Ni      -6.49931290      -4.55226461      -0.02304773 final
Ni     -73.81742964      -6.39737370       0.00144857 final
Ni     -65.98195839      -6.35573349       0.03567630 final
Ni     -58.09474028      -6.31857196      -0.00021130 final
Ni     -50.20766268      -6.37015189      -0.00029782 final
Ni     -42.51788784      -6.33402694      -0.00258368 final
Ni     -34.73092486      -6.22379355       0.00018753 final
Ni     -26.84550388      -6.24601673      -0.04015712 final
Ni     -18.94521678      -6.25920307      -0.00244546 final
Ni     -11.17047136      -6.16828563       0.03239372 final
Ni      -3.42175180      -6.07158092      -0.05256342 final
Ni     -78.66326398      -3.86193705       1.83625606 final
Ni     -70.70238356      -3.94634317       1.76653859 final
Ni     -62.81275748      -3.98098277       1.73049377 final
Ni     -54.89181600      -3.97534678       1.75621423 final
Ni     -47.15210889      -3.95742511       1.74724280 final
Mo     -39.37468926      -3.91971474       1.75577037 final
Ni     -31.58789514      -3.90922111       1.79235013 final
Ni     -23.65152727      -3.93024524       1.75693257 final
Ni     -15.88522382      -3.87770357       1.76401337 final
Ni      -8.07213710      -3.81138518       1.76670625 final
Ni     -75.31217004      -5.60280618       1.74099586 final
Ni     -67.52960015      -5.56583262       1.73562746 final
Mo     -59.69142162      -5.55306263       1.76390522 final
Mo     -51.79135398      -5.56106947       1.75201243 final
Ni     -44.10881273      -5.54584810       1.75830760 final
Ni     -36.28465404      -5.43706264       1.75937779 final
Ni     -28.43589644      -5.47234651       1.79330660 final
Ni     -20.54264687      -5.47019801       1.75389554 final
Cr     -12.77986799      -5.41610255       1.75957477 final
Mo      -4.97130313      -5.32583189       1.81599082 final
Ni     -72.28603031      -7.16729009       1.78305399 final
Cr     -64.42191385      -7.15045535       1.76146665 final
Ni     -56.53156301      -7.12545080       1.72558449 final
Ni     -48.68358297      -7.14382354       1.75876059 final
Ni     -40.95129183      -7.09773637       1.76698092 final
Ni     -33.13031948      -7.04859682       1.78584994 final
Ni     -25.22824202      -7.05677326       1.75625217 final
Ni     -17.36651043      -7.05435757       1.74918258 final
Ni      -9.61059577      -6.94719273       1.74450874 final
Mo      -1.48166764      -6.70668497       1.58845488 final
Cr     -74.58398213      -4.05142256       0.00423250 final
Cr     -66.75658099      -4.00623717       0.00365133 final
Ni     -58.90745023      -3.95925813       0.00671011 final
Ni     -50.98203744      -3.94028524      -0.00146315 final
Mo     -43.29790686      -3.92937007      -0.01011489 final
Cr     -35.48045046      -3.90719242      -0.00710895 final
Ni     -27.64727036      -3.89921061      -0.05690919 final
Ni     -19.75947800      -3.89658207       0.02476790 final
Ni     -11.98543183      -3.87126315       0.04467273 final
Mo      -4.01937102      -3.62907359      -0.05272308 final
Mo     -71.48398318      -5.56572831       0.01270975 final
Ni     -63.63387882      -5.55797805       0.03491305 final
Ni     -55.71014717      -5.58125029      -0.00516613 final
Fe     -47.92023297      -5.54119624      -0.00134532 final
Ni     -40.18215306      -5.54711639      -0.00221178 final
Mo     -32.34807794      -5.47497507      -0.00754169 final
Ni     -24.43215439      -5.52959428       0.01500247 final
Ni     -16.62925059      -5.45523002      -0.01444051 final
Cr      -8.83981419      -5.36833626       0.00288069 final
Ni      -1.41090258      -4.89314030       0.00005808 final
Ni     -76.10118713      -7.23251543      -0.00061593 final
Ni     -68.33439031      -7.15190448       0.03491633 final
Fe     -60.50754946      -7.12952064      -0.00128360 final
Ni     -52.59112944      -7.17379904      -0.00230813 final
Ni     -44.85466391      -7.08135863      -0.00072326 final
Ni     -37.11120595      -7.06208330      -0.00912178 final
Mo     -29.23335068      -7.03020350      -0.00235133 final
Ni     -21.33773513      -7.06946808       0.01004739 final
Ni     -13.55367792      -6.96778439       0.00293090 final
Ni      -5.72732515      -6.88751537      -0.02391777 final
Ni     -73.04737634      -4.78146458       1.78578620 final
Ni     -65.19972930      -4.76741058       1.72460392 final
Ni     -57.26846018      -4.78444676       1.74852140 final
Ni     -49.42733108      -4.75863896       1.74868556 final
Ni     -41.73600537      -4.75838472       1.75892799 final
Ni     -33.96258084      -4.67003557       1.77415065 final
Mo     -26.06379819      -4.70927741       1.76018082 final
Fe     -18.17160957      -4.69396135       1.75539892 final
Ni     -10.40464254      -4.62250232       1.75792251 final
Ni      -2.60490893      -4.40378457       1.89026895 final
Ni     -77.45060827      -6.49518217       1.84474117 final
Ni     -69.89521224      -6.37749321       1.75912587 final
Ni     -62.10401351      -6.35579426       1.75276889 final
Ni     -54.17804885      -6.35607763       1.71984237 final
Ni     -46.40114090      -6.32314863       1.75570351 final
Ni     -38.62246783      -6.32677911       1.75588087 final
Ni     -30.76620007      -6.24482066       1.81928933 final
Cr     -22.89178134      -6.30217079       1.75447332 final
Ni     -15.09978374      -6.19508815       1.75340318 final
Ni      -7.32871259      -6.12654275       1.75459438 final
Ni    -100.79467418      -3.32491236      -3.49121029 final
Ni     -92.85639006      -3.24214644      -3.51070069 final
Mo     -85.01359310      -3.10884072      -3.51339201 final
Ni     -97.65020350      -1.71912807      -3.50912861 final
Ni     -89.68259777      -1.56515693      -3.51260808 final
Ni     -81.90959115      -1.51843610      -3.51414744 final
Ni    -102.29863730      -0.31438833      -3.49897244 final
Ni     -94.47406486      -0.05039196      -3.47830153 final
Mo     -86.60977656      -0.00467653      -3.51297451 final
Ni     -99.13874909      -2.55581662      -5.27630184 final
Mo     -91.28346227      -2.37960394      -5.26933464 final
Ni     -83.39827559      -2.31333459      -5.27602814 final
Ni     -96.05845753      -0.87150856      -5.27876754 final
Ni     -88.16546384      -0.79773638      -5.29899666 final
Ni     -80.29249322      -0.75944304      -5.27922723 final
Ni     -98.42354022      -0.17038651      -5.29436933 final
Ni     -90.48171183       0.02606283      -5.27688377 final
Ni     -82.64435058       0.05102369      -5.31157787 final
Mo     -95.25221649      -2.47217344      -3.50547037 final
Ni     -87.39601434      -2.38783233      -3.51216326 final
Ni     -79.72317200      -2.33326612      -3.51686900 final
Ni     -99.96286761      -1.00395965      -3.48559979 final
Ni     -92.08243547      -0.79804654      -3.49157466 final
Ni     -84.22427191      -0.74357914      -3.51333530 final
Fe     -96.83308482      -3.30221725      -5.26161312 final
Ni     -88.91231581      -3.18667749      -5.27731413 final
Cr     -81.09960609      -3.14075843      -5.25820023 final
Mo    -101.44078638      -1.83622689      -5.35041003 final
Ni     -93.67038277      -1.64016147      -5.27162079 final
Ni     -85.81246555      -1.54359203      -5.31541065 final
Ni     -76.90306526      -0.94584320      -5.27308349 final
Mo     -69.14271026      -0.86602547      -5.27388799 final
Ni     -61.30451158      -0.82407107      -5.28351728 final
Ni     -53.34028891      -0.83975351      -5.25064766 final
Fe     -45.61676154      -0.77673486      -5.28343034 final
Ni     -37.87840165      -0.77857468      -5.28170737 final
Ni     -29.99818059      -0.73578101      -5.32446681 final
Cr     -22.08957950      -0.74725028      -5.28410603 final
Ni     -14.36867392      -0.71723339      -5.26503016 final
Ni      -6.50832310      -0.58010399      -5.26121754 final
Ni     -73.82476602      -2.45952785      -5.26123524 final
Ni     -65.99599545      -2.40451366      -5.32476678 final
Ni     -58.13535830      -2.42003827      -5.28297794 final
Ni     -50.21726189      -2.41414719      -5.29386836 final
Ni     -42.50341819      -2.30734524      -5.28570322 final
Ni     -34.71183649      -2.36796930      -5.27882696 final
Ni     -26.85522555      -2.33238789      -5.28858103 final
Cr     -18.98050621      -2.35006669      -5.28601781 final
Cr     -11.15390688      -2.32482936      -5.27452301 final
Ni      -3.45129496      -2.11170576      -5.21413595 final
Mo     -78.57184330       0.00569659      -3.51192288 final
Ni     -70.70400601      -0.08689303      -3.47547239 final
Ni     -62.85231756      -0.06088317      -3.49018564 final
Cr     -54.94406921      -0.04711043      -3.51865502 final
Ni     -47.15224016      -0.02870005      -3.52225363 final
Cr     -39.41202946       0.00437590      -3.52423569 final
Ni     -31.57757805       0.02276172      -3.48407921 final
Ni     -23.64339489       0.01540615      -3.52473102 final
Ni     -15.91137739       0.07885744      -3.57537117 final
Cr      -8.06146893       0.18143165      -3.52272749 final
Ni     -75.29386420      -1.66733959      -3.51539894 final
Ni     -67.54796699      -1.64987410      -3.47697261 final
Ni     -59.69066525      -1.60521957      -3.53479861 final
Cr     -51.75101006      -1.62602909      -3.52863466 final
Ni     -44.07466122      -1.53433813      -3.52942794 final
Ni     -36.27619687      -1.58143650      -3.52065730 final
Ni     -28.44137676      -1.54383286      -3.47891391 final
Ni     -20.55183884      -1.56818529      -3.57071293 final
Ni     -12.76670979      -1.50936362      -3.56234140 final
Ni      -4.97702899      -1.31729991      -3.52376200 final
Cr     -72.26943284      -3.21988555      -3.51293889 final
Mo     -64.38993770      -3.19733437      -3.52377250 final
Mo     -56.52153736      -3.20271178      -3.51635662 final
Ni     -48.66676408      -3.18922806      -3.52254519 final
Ni     -40.94757372      -3.10194343      -3.52618720 final
Ni     -33.16125909      -3.11965118      -3.48961807 final
Ni     -25.23937220      -3.13452975      -3.52378504 final
Ni     -17.42171535      -3.11597178      -3.53449437 final
Ni      -9.63472743      -3.04349005      -3.54399627 final
Mo      -1.40167966      -2.85411090      -3.49404951 final
Cr     -74.56487029      -0.11220879      -5.27094103 final
Ni     -66.76198378      -0.06070828      -5.27924762 final
Mo     -58.88605469      -0.02821499      -5.27936200 final
Ni     -51.00189958      -0.10527813      -5.28118481 final
Ni     -43.28857630       0.00429263      -5.29106973 final
Mo     -35.50460699       0.02457916      -5.28631414 final
Ni     -27.66705124       0.03483613      -5.31645756 final
Ni     -19.76809190       0.00523619      -5.28521155 final
Mo     -11.97015380       0.13344728      -5.28696365 final
Cr      -4.18209051       0.20924008      -5.27082147 final
Ni     -71.51709604      -1.65422618      -5.27823377 final
Ni     -63.63654077      -1.63678787      -5.31243996 final
Ni     -55.71459146      -1.59091022      -5.24618604 final
Ni     -47.91376911      -1.61536974      -5.28911663 final
Ni     -40.18747138      -1.51779346      -5.29585008 final
Mo     -32.34940946      -1.54766826      -5.28689458 final
Ni     -24.42732653      -1.56510489      -5.28011395 final
Ni     -16.65955291      -1.53881596      -5.27523200 final
Ni      -8.88047419      -1.43066290      -5.25647325 final
Ni      -1.32931408      -1.21946632      -5.27384380 final
Ni     -76.14644991      -3.33204818      -5.30678579 final
Ni     -68.31238133      -3.21447103      -5.31028373 final
Cr     -60.49748232      -3.10423704      -5.28666409 final
Ni     -52.55256801      -3.15053953      -5.27611636 final
Ni     -44.87145752      -3.13269103      -5.28260253 final
Ni     -37.01424724      -3.11850357      -5.28459432 final
Mo     -29.22201949      -3.10691495      -5.28110976 final
Cr     -21.30963438      -3.12068025      -5.28378691 final
Ni     -13.54024541      -3.07936385      -5.27997913 final
Ni      -5.73432126      -2.93812550      -5.25909348 final
Ni     -73.02683052      -0.86024508      -3.51019774 final
Ni     -65.20961755      -0.83423233      -3.48236916 final
Ni     -57.29415930      -0.80580275      -3.50177492 final
Ni     -49.46052287      -0.85880004      -3.52341129 final
Fe     -41.71856665      -0.75648812      -3.52638637 final
Ni     -33.90990351      -0.75770766      -3.48926810 final
Mo     -26.04907799      -0.74954061      -3.52535279 final
Ni     -18.18720921      -0.77553127      -3.55215558 final
Ni     -10.39631306      -0.65952496      -3.51839778 final
Ni      -2.63868628      -0.47766496      -3.53137643 final
Ni     -77.49970939      -2.46778934      -3.51511331 final
Ni     -69.92919235      -2.41339851      -3.48506224 final
Ni     -62.04378722      -2.37778571      -3.54676184 final
Ni     -54.10189164      -2.37526973      -3.52972333 final
Ni     -46.37888095      -2.36858190      -3.52466320 final
Ni     -38.59677414      -2.30890552      -3.52253225 final
Ni     -30.78581612      -2.30926812      -3.45691781 final
Ni     -22.86037813      -2.32780673      -3.57093370 final
Cr     -15.14150817      -2.32770702      -3.55799440 final
Ni      -7.30745309      -2.17450065      -3.52158229 final
Ni    -100.81559227      -7.25555710      -1.78032968 final
Mo     -92.89297486      -7.12272345      -1.75413148 final
Ni     -85.01956748      -7.06336501      -1.80683247 final
Ni     -97.61294573      -5.66628130      -1.78648631 final
Cr     -89.72177631      -5.51902948      -1.75720189 final
Ni     -81.87070418      -5.45296410      -1.78089860 final
Ni    -102.32327270      -4.18323484      -1.78763321 final
Ni     -94.43250013      -4.08950109      -1.75471381 final
Ni     -86.59207564      -3.95681773      -1.75415832 final
Ni     -99.15194375      -6.46985712      -3.53082871 final
Ni     -91.26925960      -6.31239571      -3.53307389 final
Cr     -83.41085137      -6.25556497      -3.51349545 final
Ni     -96.03966965      -4.87465494      -3.52067996 final
Ni     -88.16476346      -4.74976460      -3.51151864 final
Ni     -80.25662735      -4.68571563      -3.51549643 final
Ni     -98.40369483      -4.09488673      -3.51718013 final
Ni     -90.46190220      -4.00498511      -3.52069405 final
Ni     -82.60088813      -3.89638604      -3.51341479 final
Ni     -95.26840761      -6.40263499      -1.75981848 final
Ni     -87.39238987      -6.30284643      -1.78557126 final
Ni     -79.65369452      -6.24032266      -1.76024085 final
Ni     -99.94726157      -4.88975776      -1.78742201 final
Ni     -92.03934461      -4.78966902      -1.75580876 final
Ni     -84.20285992      -4.71552891      -1.79500695 final
Ni     -96.80998653      -7.22306333      -3.53679925 final
Ni     -88.94489649      -7.07635348      -3.51481626 final
Ni     -81.10958778      -7.05407723      -3.51612261 final
Cr    -101.33085866      -5.71348758      -3.53036037 final
Ni     -93.66574408      -5.58117328      -3.54557527 final
Ni     -85.80587788      -5.53427154      -3.51262838 final
Mo     -77.02569125      -4.85168629      -3.51154454 final
Mo     -69.12383529      -4.78631276      -3.51640564 final
Ni     -61.31281695      -4.75305263      -3.54287672 final
Ni     -53.38013656      -4.76464120      -3.52353044 final
Ni     -45.64683364      -4.74486204      -3.52615784 final
Ni     -37.79959141      -4.71126893      -3.52036660 final
Ni     -29.99919972      -4.67745021      -3.48253775 final
Ni     -22.10074720      -4.70469002      -3.58013884 final
Ni     -14.32011938      -4.63534025      -3.54142485 final
Ni      -6.55364367      -4.53631826      -3.49184073 final
Ni     -73.80608116      -6.39577860      -3.51187341 final
Ni     -65.97966200      -6.33805062      -3.55780024 final
Ni     -58.06772194      -6.32246665      -3.52363746 final
Ni     -50.20270586      -6.37404437      -3.52587031 final
Ni     -42.51666993      -6.34054057      -3.52701905 final
Ni     -34.72020819      -6.22348934      -3.52686315 final
Ni     -26.86614311      -6.25647506      -3.49231384 final
Ni     -18.95091457      -6.25865452      -3.52920007 final
Ni     -11.18319241      -6.17376606      -3.55912464 final
Ni      -3.38749137      -6.13295940      -3.45927813 final
Ni     -78.66226331      -3.86585024      -1.82881457 final
Fe     -70.72036233      -3.96711612      -1.76278603 final
Ni     -62.88329107      -4.01226091      -1.72490820 final
Ni     -54.90637455      -3.98712675      -1.76255218 final
Ni     -47.14992404      -3.95699801      -1.75398204 final
Mo     -39.37803289      -3.91664358      -1.76201272 final
Ni     -31.57979529      -3.87949502      -1.79199082 final
Mo     -23.64293429      -3.93993605      -1.76714661 final
Ni     -15.86960199      -3.86421338      -1.77177735 final
Ni      -8.11458686      -3.79226700      -1.76737918 final
Ni     -75.31662861      -5.60312824      -1.73612555 final
Cr     -67.52425728      -5.59180324      -1.73435094 final
Ni     -59.69974278      -5.54420180      -1.76567047 final
Mo     -51.78135591      -5.56561856      -1.75976454 final
Ni     -44.09877900      -5.54799034      -1.76734784 final
Ni     -36.28425299      -5.44755988      -1.76489289 final
Ni     -28.43524655      -5.46461843      -1.79922573 final
Ni     -20.54505222      -5.46972522      -1.76639700 final
Fe     -12.75482842      -5.37965489      -1.76375865 final
Ni      -4.96027747      -5.30455644      -1.78294395 final
Ni     -72.25881782      -7.17715317      -1.77162487 final
Mo     -64.39807219      -7.12979018      -1.75859686 final
Ni     -56.49559146      -7.11752479      -1.72904246 final
Ni     -48.68564987      -7.14312287      -1.76504960 final
Ni     -40.95341113      -7.09999737      -1.77238883 final
Ni     -33.13825453      -7.03628738      -1.79512616 final
Ni     -25.23871026      -7.03995001      -1.76695810 final
Ni     -17.42693993      -7.03408720      -1.76020709 final
Ni      -9.59086317      -6.93630981      -1.74730507 final
Mo      -1.29979586      -6.70329057      -1.57192385 final
Ni     -74.61235525      -4.03338189      -3.51481682 final
Ni     -66.75763414      -3.98666556      -3.51893256 final
Ni     -58.91765621      -3.96613360      -3.52829253 final
Ni     -50.98766162      -3.95258603      -3.52410319 final
Mo     -43.30312071      -3.93017167      -3.52151357 final
Cr     -35.50426169      -3.89719925      -3.51808211 final
Ni     -27.64270095      -3.88820662      -3.47370523 final
Ni     -19.75759988      -3.89312549      -3.55451611 final
Ni     -11.98439951      -3.86483811      -3.56606597 final
Ni      -4.18383554      -3.68032483      -3.48995766 final
Ni     -71.49537763      -5.56386985      -3.52528534 final
Ni     -63.62399994      -5.57649730      -3.55601513 final
Ni     -55.71770999      -5.56026173      -3.51973648 final
Fe     -47.91500811      -5.55604305      -3.52163190 final
Ni     -40.18515997      -5.54464033      -3.52410166 final
Ni     -32.37514116      -5.45976144      -3.51653414 final
Ni     -24.43876364      -5.53189476      -3.54463271 final
Ni     -16.62876422      -5.44619359      -3.51611434 final
Ni      -8.86358274      -5.37767696      -3.52058878 final
Ni      -1.16734729      -5.35440826      -3.52392557 final
Ni     -76.03203489      -7.26399455      -3.50397389 final
Ni     -68.31178976      -7.17252962      -3.55271102 final
Ni     -60.50225163      -7.12009095      -3.51890197 final
Ni     -52.56185831      -7.17128084      -3.52493432 final
Ni     -44.85590596      -7.08225237      -3.52816187 final
Ni     -37.10522836      -7.05978906      -3.51615682 final
Cr     -29.19684371      -7.04321057      -3.52380837 final
Ni     -21.33617974      -7.07062963      -3.54102090 final
Ni     -13.55379490      -6.95682697      -3.52964266 final
Ni      -5.75098897      -6.91292349      -3.48059144 final
Ni     -73.04846514      -4.79061946      -1.77598231 final
Ni     -65.22358830      -4.76614319      -1.72153367 final
Ni     -57.32467363      -4.78843871      -1.75297212 final
Ni     -49.42353820      -4.75562994      -1.75244120 final
Ni     -41.72894606      -4.75830334      -1.76711687 final
Ni     -33.96979392      -4.67654165      -1.77889153 final
Ni     -26.04350237      -4.70562744      -1.77154326 final
Ni     -18.17003941      -4.68085926      -1.76687383 final
Ni     -10.41604591      -4.65176672      -1.75560577 final
Ni      -2.59709553      -4.43361344      -1.89264057 final
Ni     -77.46020765      -6.47863668      -1.82712305 final
Ni     -69.90089264      -6.35611144      -1.75330590 final
Fe     -62.03248202      -6.33843363      -1.75328623 final
Ni     -54.16101062      -6.35429746      -1.72780134 final
Fe     -46.40991588      -6.32884074      -1.76411394 final
Ni     -38.63091277      -6.32409278      -1.76142199 final
Ni     -30.78228581      -6.26859958      -1.82483663 final
Ni     -22.88948896      -6.33052984      -1.76531894 final
Fe     -15.08942700      -6.21564183      -1.75982027 final
Ni      -7.30444396      -6.11391094      -1.74426534 final
