130
Lattice="0.0 0.0 -3.52 2e-16 -3.9354796403996297 1.7600000000000007 -102.32247065039037 0.0 -6.3e-15" Properties=species:S:1:pos:R:3:frame_label:S:1 pbc="T T T"
Ni    -100.68421613      -3.12817769      -0.00000000 random
Ni     -92.83912035      -3.15220828      -0.00000000 random
Ni     -85.08944627      -3.14675678      -0.00000000 random
Fe     -97.49635799      -1.56976201      -0.00000000 random
Mo     -89.74084859      -1.57280813      -0.00000000 random
Ni     -82.01308271      -1.56713148      -0.00000000 random
Ni    -102.32334456      -0.01198342      -0.00000000 random
Ni     -94.38747173      -0.00509226      -0.00000000 random
Cr     -86.64459173       0.00509226      -0.00000000 random
Ni     -99.01898075      -2.36834816      -1.76000000 random
Mo     -91.29121487      -2.36267151      -1.76000000 random
Ni     -83.53570547      -2.36571763      -1.76000000 random
Ni     -95.94261719      -0.78872286      -1.76000000 random
Fe     -88.19294311      -0.78327136      -1.76000000 random
Ni     -80.34784733      -0.80730195      -1.76000000 random
Ni     -98.28548225       0.00638148      -1.76000000 random
Ni     -90.51603173       0.00000000      -1.76000000 random
Ni     -82.74658121      -0.00638148      -1.76000000 random
Mo     -95.16397428      -2.36492959      -0.00000000 random
Fe     -87.41715697      -2.35689535      -0.00000000 random
Ni     -79.80510840      -2.38181110      -0.00000000 random
Ni     -99.83824749      -0.74628196      -0.00000000 random
Ni     -92.06429434      -0.79030318      -0.00000000 random
Ni     -84.32128036      -0.78349434      -0.00000000 random
Ni     -96.71078310      -3.15198530      -1.76000000 random
Mo     -88.96776911      -3.14517646      -1.76000000 random
Ni     -81.19381597      -3.18919768      -1.76000000 random
Ni    -101.22695506      -1.55366854      -1.76000000 random
Ni     -93.61490649      -1.57858429      -1.76000000 random
Ni     -85.86808917      -1.57055005      -1.76000000 random
Mo     -77.06870959      -0.80694054      -1.76000000 random
Ni     -69.19580674      -0.77997460      -1.76000000 random
Ni     -61.38003842      -0.78579651      -1.76000000 random
Ni     -53.52214389      -0.78706552      -1.76000000 random
Ni     -45.65156116      -0.78709580      -1.76000000 random
Ni     -37.78060477      -0.78709594      -1.76000000 random
Ni     -29.90966339      -0.78709706      -1.76000000 random
Mo     -22.04074162      -0.78727425      -1.76000000 random
Ni     -14.19773857      -0.79019384      -1.76000000 random
Ni      -6.39440802      -0.79036345      -1.76000000 random
Ni     -73.87450081      -2.36470172      -1.76000000 random
Ni     -66.07520422      -2.35684258      -1.76000000 random
Ni     -58.24089081      -2.36090943      -1.76000000 random
Ni     -50.37408761      -2.36128415      -1.76000000 random
Ni     -42.50317956      -2.36128776      -1.76000000 random
Ni     -34.63222203      -2.36128784      -1.76000000 random
Ni     -26.76140607      -2.36129878      -1.76000000 random
Ni     -18.89818089      -2.36202534      -1.76000000 random
Mo     -11.07228666      -2.36721621      -1.76000000 random
Mo      -3.30869562      -2.36886856      -1.76000000 random
Ni     -78.70871890       0.01198342      -0.00000000 random
Ni     -70.75281085       0.00748857      -0.00000000 random
Ni     -62.94670336       0.00210653      -0.00000000 random
Mo     -55.09579383       0.00007700      -0.00000000 random
Ni     -47.22574908       0.00000036      -0.00000000 random
Cr     -39.35479640       0.00000000      -0.00000000 random
Ni     -31.48384373      -0.00000036      -0.00000000 random
Ni     -23.61379897      -0.00007700      -0.00000000 random
Ni     -15.76288945      -0.00210653      -0.00000000 random
Ni      -7.95678196      -0.00748857      -0.00000000 random
Ni     -75.40089718      -1.56661108      -0.00000000 random
Ni     -67.63730615      -1.56826343      -0.00000000 random
Ni     -59.81141192      -1.57345430      -0.00000000 random
Ni     -51.94818674      -1.57418086      -0.00000000 random
Cr     -44.07737078      -1.57419180      -0.00000000 random
Fe     -36.20641324      -1.57419188      -0.00000000 random
Ni     -28.33550520      -1.57419549      -0.00000000 random
Ni     -20.46870199      -1.57457021      -0.00000000 random
Ni     -12.63438859      -1.57863706      -0.00000000 random
Ni      -4.83509200      -1.57077792      -0.00000000 random
Ni     -72.31518479      -3.14511619      -0.00000000 random
Mo     -64.51185424      -3.14528580      -0.00000000 random
Ni     -56.66885119      -3.14820539      -0.00000000 random
Ni     -48.79992942      -3.14838258      -0.00000000 random
Ni     -40.92898804      -3.14838370      -0.00000000 random
Ni     -33.05803165      -3.14838384      -0.00000000 random
Cr     -25.18744892      -3.14841412      -0.00000000 random
Ni     -17.32955438      -3.14968313      -0.00000000 random
Ni      -9.51378607      -3.15550504      -0.00000000 random
Ni      -1.64088322      -3.12853910      -0.00000000 random
Ni     -74.66571632      -0.00561005      -1.76000000 random
Ni     -66.85646447       0.00497554      -1.76000000 random
Mo     -59.02637329       0.00053323      -1.76000000 random
Cr     -51.16114832       0.00000638      -1.76000000 random
Ni     -43.29027523       0.00000004      -1.76000000 random
Fe     -35.41931758      -0.00000004      -1.76000000 random
Mo     -27.54844449      -0.00000638      -1.76000000 random
Ni     -19.68321952      -0.00053323      -1.76000000 random
Cr     -11.85312834      -0.00497554      -1.76000000 random
Ni      -4.04387649       0.00561005      -1.76000000 random
Ni     -71.53308978      -1.56854538      -1.76000000 random
Ni     -63.72944384      -1.57161596      -1.76000000 random
Ni     -55.88242044      -1.57407356      -1.76000000 random
Ni     -48.01284078      -1.57419122      -1.76000000 random
Cr     -40.14189223      -1.57419185      -1.76000000 random
Ni     -32.27093718      -1.57419207      -1.76000000 random
Ni     -24.40057094      -1.57424087      -1.76000000 random
Ni     -16.54598334      -1.57587304      -1.76000000 random
Ni      -8.73356633      -1.58145705      -1.76000000 random
Ni      -1.09856287      -1.55406655      -1.76000000 random
Ni     -76.22147516      -3.18885388      -1.76000000 random
Ni     -68.41614100      -3.14135486      -1.76000000 random
Ni     -60.59596359      -3.14739015      -1.76000000 random
Ni     -52.73519090      -3.14836521      -1.76000000 random
Ni     -44.86446613      -3.14838363      -1.76000000 random
Ni     -36.99350898      -3.14838373      -1.76000000 random
Ni     -29.12257996      -3.14838575      -1.76000000 random
Ni     -21.25456414      -3.14864630      -1.76000000 random
Ni     -13.41571760      -3.15208440      -1.76000000 random
Ni      -5.62315349      -3.15323213      -1.76000000 random
Mo     -73.08643932      -0.78224751      -0.00000000 random
Ni     -65.29387520      -0.78339524      -0.00000000 random
Ni     -57.45502866      -0.78683334      -0.00000000 random
Ni     -49.58701285      -0.78709389      -0.00000000 random
Ni     -41.71608383      -0.78709591      -0.00000000 random
Ni     -33.84512668      -0.78709601      -0.00000000 random
Ni     -25.97440190      -0.78711443      -0.00000000 random
Cr     -18.11362921      -0.78808949      -0.00000000 random
Ni     -10.29345181      -0.79412478      -0.00000000 random
Ni      -2.48811765      -0.74662576      -0.00000000 random
Ni     -77.61102994      -2.38141309      -0.00000000 random
Ni     -69.97602648      -2.35402259      -0.00000000 random
Cr     -62.16360947      -2.35960660      -0.00000000 random
Ni     -54.30902187      -2.36123877      -0.00000000 random
Ni     -46.43865562      -2.36128757      -0.00000000 random
Ni     -38.56770058      -2.36128779      -0.00000000 random
Ni     -30.69675203      -2.36128842      -0.00000000 random
Cr     -22.82717237      -2.36140608      -0.00000000 random
Ni     -14.98014897      -2.36386368      -0.00000000 random
Ni      -7.17650302      -2.36693426      -0.00000000 random
130
Lattice="0.0 0.0 -3.52 2e-16 -3.9354796403996297 1.7600000000000007 -102.32247065039037 0.0 -6.3e-15" Properties=species:S:1:pos:R:3:frame_label:S:1 pbc="T T T"
Ni    -100.84270396      -3.12759965      -0.00000000 snap500
Fe     -92.92332496      -3.10702401      -0.00000000 snap500
Cr     -84.96649767      -2.95239592      -0.00000000 snap500
Ni     -97.71838751      -1.59936712      -0.00000000 snap500
Mo     -89.69907910      -1.45386569      -0.00000000 snap500
Ni     -81.89285830      -1.35087705      -0.00000000 snap500
Mo    -102.50686269      -0.05988182      -0.00000000 snap500
Ni     -94.58508055       0.00679540      -0.00000000 snap500
Ni     -86.49176829       0.18655063      -0.00000000 snap500
Cr     -99.19277339      -2.37651728      -1.76000000 snap500
Ni     -91.31103181      -2.30276782      -1.76000000 snap500
Fe     -83.43962991      -2.14757442      -1.76000000 snap500
Ni     -96.18192271      -0.82000997      -1.76000000 snap500
Ni     -88.06314447      -0.61006607      -1.76000000 snap500
Mo     -80.24534229      -0.51075339      -1.76000000 snap500
Ni     -98.49282991      -0.00374168      -1.76000000 snap500
Ni     -90.51976199       0.09788623      -1.76000000 snap500
Ni     -82.66622320       0.21440573      -1.76000000 snap500
Ni     -95.38098991      -2.39182502      -0.00000000 snap500
Ni     -87.26792126      -2.17602773      -0.00000000 snap500
Ni     -79.50527129      -2.04298442      -0.00000000 snap500
Ni    -100.00890822      -0.74870265      -0.00000000 snap500
Ni     -92.12925399      -0.70687262      -0.00000000 snap500
Ni     -84.20413026      -0.58311422      -0.00000000 snap500
Ni     -96.94171895      -3.17521153      -1.76000000 snap500
Ni     -88.85862477      -3.01499103      -1.76000000 snap500
Ni     -81.08815279      -2.90399859      -1.76000000 snap500
Ni    -101.39131616      -1.58027170      -1.76000000 snap500
Mo     -93.74680047      -1.55513029      -1.76000000 snap500
Ni     -85.72440830      -1.37149827      -1.76000000 snap500
Mo     -77.11895943      -1.15378311      -1.76000000 snap500
Ni     -69.08972672      -0.89379401      -1.76000000 snap500
Ni     -61.01895184      -0.81839850      -1.76000000 snap500
Ni     -53.29944486      -0.83702319      -1.76000000 snap500
Ni     -45.62241909      -0.79738504      -1.76000000 snap500
Ni     -37.79467502      -0.75047559      -1.76000000 snap500
Ni     -30.03480977      -0.72405750      -1.76000000 snap500
Ni     -22.24827502      -0.79435428      -1.76000000 snap500
Ni     -14.47485781      -0.77255430      -1.76000000 snap500
Ni      -6.49009818      -0.82313361      -1.76000000 snap500
Ni     -73.65112711      -2.64300334      -1.76000000 snap500
Ni     -65.91984060      -2.40058720      -1.76000000 snap500
Cr     -57.90585697      -2.38637204      -1.76000000 snap500
Cr     -50.22036760      -2.40762742      -1.76000000 snap500
Ni     -42.60365712      -2.30949592      -1.76000000 snap500
Ni     -34.57079853      -2.38659697      -1.76000000 snap500
Ni     -26.83018640      -2.35979320      -1.76000000 snap500
Ni     -19.11983019      -2.38703040      -1.76000000 snap500
Mo     -11.35697145      -2.32618780      -1.76000000 snap500
Cr      -3.51461996      -2.30453225      -1.76000000 snap500
Ni     -78.60389452       0.28378610      -0.00000000 snap500
Ni     -70.61100286      -0.17152377      -0.00000000 snap500
Ni     -62.68272029      -0.02697217      -0.00000000 snap500
Ni     -54.85350743      -0.04896466      -0.00000000 snap500
Ni     -47.15980259      -0.02368076      -0.00000000 snap500
Ni     -39.37862819       0.03037621      -0.00000000 snap500
Ni     -31.55479091       0.05916406      -0.00000000 snap500
Ni     -23.75781319      -0.02129139      -0.00000000 snap500
Cr     -15.97008784      -0.04255424      -0.00000000 snap500
Mo      -8.12143014      -0.01341155      -0.00000000 snap500
Ni     -75.18069039      -1.86264145      -0.00000000 snap500
Ni     -67.54996791      -1.62292589      -0.00000000 snap500
Ni     -59.43115460      -1.60634153      -0.00000000 snap500
Ni     -51.76139138      -1.62455509      -0.00000000 snap500
Ni     -44.10041941      -1.55341262      -0.00000000 snap500
Mo     -36.19598375      -1.56601633      -0.00000000 snap500
Fe     -28.47020337      -1.53532036      -0.00000000 snap500
Ni     -20.72293737      -1.56161572      -0.00000000 snap500
Ni     -12.97659797      -1.51319825      -0.00000000 snap500
Ni      -4.99049767      -1.55525378      -0.00000000 snap500
Cr     -72.13055384      -3.37317430      -0.00000000 snap500
Ni     -64.29056233      -3.19468365      -0.00000000 snap500
Ni     -56.37937384      -3.18303917      -0.00000000 snap500
Ni     -48.68390267      -3.18692346      -0.00000000 snap500
Ni     -41.02580918      -3.10218339      -0.00000000 snap500
Cr     -33.04612053      -3.12899000      -0.00000000 snap500
Ni     -25.25315059      -3.17012387      -0.00000000 snap500
Ni     -17.50909372      -3.20711006      -0.00000000 snap500
Ni      -9.74160885      -3.13826110      -0.00000000 snap500
Ni      -1.83737706      -3.07063479      -0.00000000 snap500
Ni     -74.47049373      -0.30753492      -1.76000000 snap500
Ni     -66.74769505      -0.04891482      -1.76000000 snap500
Ni     -58.66304216      -0.04056923      -1.76000000 snap500
Ni     -50.99304061      -0.05205406      -1.76000000 snap500
Cr     -43.34791151       0.03138895      -1.76000000 snap500
Ni     -35.35912630       0.00552668      -1.76000000 snap500
Ni     -27.65270449       0.02011741      -1.76000000 snap500
Mo     -19.93052346      -0.01137737      -1.76000000 snap500
Ni     -12.17989607       0.03626065      -1.76000000 snap500
Ni      -4.21566914       0.04173592      -1.76000000 snap500
Ni     -71.35463038      -1.77862571      -1.76000000 snap500
Ni     -63.48215398      -1.58437008      -1.76000000 snap500
Ni     -55.62000073      -1.60381744      -1.76000000 snap500
Ni     -47.91450934      -1.60329502      -1.76000000 snap500
Mo     -40.20603094      -1.53379502      -1.76000000 snap500
Ni     -32.30955528      -1.54098658      -1.76000000 snap500
Ni     -24.49641938      -1.61056737      -1.76000000 snap500
Ni     -16.72027867      -1.61596967      -1.76000000 snap500
Ni      -8.93090904      -1.57817248      -1.76000000 snap500
Ni      -1.30035038      -1.51631567      -1.76000000 snap500
Ni     -75.97971537      -3.50419687      -1.76000000 snap500
Fe     -68.34088427      -3.22412747      -1.76000000 snap500
Ni     -60.22673716      -3.19544415      -1.76000000 snap500
Ni     -52.53149550      -3.20374990      -1.76000000 snap500
Ni     -44.86561075      -3.14137544      -1.76000000 snap500
Ni     -37.00846243      -3.13411635      -1.76000000 snap500
Ni     -29.25496190      -3.07630888      -1.76000000 snap500
Ni     -21.50692537      -3.14291420      -1.76000000 snap500
Ni     -13.72908261      -3.11673979      -1.76000000 snap500
Ni      -5.74797470      -3.15716217      -1.76000000 snap500
Ni     -72.89554178      -1.03483389      -0.00000000 snap500
Mo     -65.08655774      -0.82187310      -0.00000000 snap500
Ni     -57.14316213      -0.81119491      -0.00000000 snap500
Ni     -49.44161316      -0.83884704      -0.00000000 snap500
Ni     -41.81837585      -0.72161631      -0.00000000 snap500
Ni     -33.80771627      -0.78393047      -0.00000000 snap500
Mo     -26.04674475      -0.81672192      -0.00000000 snap500
Ni     -18.29208196      -0.82576666      -0.00000000 snap500
Ni     -10.54985438      -0.76224566      -0.00000000 snap500
Ni      -2.70028157      -0.69486621      -0.00000000 snap500
Ni     -77.33236692      -2.72169193      -0.00000000 snap500
Ni     -69.84942699      -2.50233632      -0.00000000 snap500
Mo     -61.85606592      -2.39117981      -0.00000000 snap500
Fe     -54.06218518      -2.40986984      -0.00000000 snap500
Ni     -46.39083244      -2.36662099      -0.00000000 snap500
Ni     -38.59663087      -2.35653846      -0.00000000 snap500
Ni     -30.80613186      -2.30472928      -0.00000000 snap500
Cr     -22.99430747      -2.37042666      -0.00000000 snap500
Ni     -15.22632324      -2.37412927      -0.00000000 snap500
Ni      -7.29556929      -2.37295688      -0.00000000 snap500
130
Lattice="0.0 0.0 -3.52 2e-16 -3.9354796403996297 1.7600000000000007 -102.32247065039037 0.0 -6.3e-15" Properties=species:S:1:pos:R:3:frame_label:S:1 pbc="T T T"
Ni    -100.73507346      -3.07557928      -0.00000000 snap1000
Ni     -92.94348480      -3.08332994      -0.00000000 snap1000
Ni     -84.98917431      -2.91987121      -0.00000000 snap1000
Ni     -97.59508550      -1.52647899      -0.00000000 snap1000
Ni     -89.69449938      -1.42903707      -0.00000000 snap1000
Ni     -81.92421372      -1.28536128      -0.00000000 snap1000
Mo    -102.41911064      -0.05189295      -0.00000000 snap1000
Ni     -94.48638436       0.05824833      -0.00000000 snap1000
Fe     -86.53707166       0.20180240      -0.00000000 snap1000
Cr     -99.07900665      -2.31649705      -1.76000000 snap1000
Ni     -91.35918320      -2.26051240      -1.76000000 snap1000
Ni     -83.45034297      -2.10360945      -1.76000000 snap1000
Ni     -96.03728532      -0.73411611      -1.76000000 snap1000
Ni     -88.09970190      -0.60485678      -1.76000000 snap1000
Ni     -80.29974473      -0.44562797      -1.76000000 snap1000
Ni     -98.36935305       0.06085431      -1.76000000 snap1000
Mo     -90.52444474       0.12333245      -1.76000000 snap1000
Ni     -82.68482837       0.25928484      -1.76000000 snap1000
Fe     -95.26160406      -2.30463203      -0.00000000 snap1000
Ni     -87.31835967      -2.16700307      -0.00000000 snap1000
Mo     -79.52164569      -1.97033826      -0.00000000 snap1000
Ni     -99.90237589      -0.69306830      -0.00000000 snap1000
Ni     -92.15173235      -0.71646149      -0.00000000 snap1000
Cr     -84.22563339      -0.54054659      -0.00000000 snap1000
Ni     -96.81194104      -3.10241645      -1.76000000 snap1000
Ni     -88.89697932      -2.96722185      -1.76000000 snap1000
Ni     -81.11061355      -2.84982271      -1.76000000 snap1000
Ni    -101.29405351      -1.52895949      -1.76000000 snap1000
Ni     -93.72004128      -1.51441601      -1.76000000 snap1000
Ni     -85.75674531      -1.35238739      -1.76000000 snap1000
Ni     -77.59918320      -1.06840630      -1.76000000 snap1000
Ni     -69.01343826      -0.96683792      -1.76000000 snap1000
Ni     -61.16519117      -0.86221721      -1.76000000 snap1000
Ni     -53.35985979      -0.86400721      -1.76000000 snap1000
Ni     -45.79620069      -0.73426151      -1.76000000 snap1000
Ni     -37.76035192      -0.80001510      -1.76000000 snap1000
Ni     -30.08050785      -0.76798782      -1.76000000 snap1000
Ni     -22.30014735      -0.73243274      -1.76000000 snap1000
Ni     -14.32741675      -0.72679884      -1.76000000 snap1000
Fe      -6.48859762      -0.79997177      -1.76000000 snap1000
Ni     -73.58504375      -2.73545216      -1.76000000 snap1000
Cr     -66.01245651      -2.44991485      -1.76000000 snap1000
Ni     -58.07969826      -2.42662335      -1.76000000 snap1000
Ni     -50.32627157      -2.40696355      -1.76000000 snap1000
Ni     -42.61208117      -2.31646983      -1.76000000 snap1000
Ni     -34.56679380      -2.40310287      -1.76000000 snap1000
Ni     -26.89618670      -2.38499357      -1.76000000 snap1000
Mo     -18.94991223      -2.34429278      -1.76000000 snap1000
Mo     -11.18773496      -2.33360687      -1.76000000 snap1000
Cr      -3.46292215      -2.33333191      -1.76000000 snap1000
Ni     -78.64323119       0.38698115      -0.00000000 snap1000
Ni     -70.52908425      -0.23778686      -0.00000000 snap1000
Ni     -62.74157959      -0.06896231      -0.00000000 snap1000
Ni     -54.86550003      -0.10474271      -0.00000000 snap1000
Ni     -47.29829491       0.00302110      -0.00000000 snap1000
Ni     -39.36633985       0.01314490      -0.00000000 snap1000
Ni     -31.59528906       0.01562073      -0.00000000 snap1000
Ni     -23.85817175       0.02769509      -0.00000000 snap1000
Ni     -15.85002454       0.03004645      -0.00000000 snap1000
Ni      -8.03493529      -0.01969976      -0.00000000 snap1000
Ni     -75.04031119      -1.97812387      -0.00000000 snap1000
Ni     -67.49303619      -1.70474975      -0.00000000 snap1000
Ni     -59.64967659      -1.62507950      -0.00000000 snap1000
Ni     -51.85811863      -1.63470164      -0.00000000 snap1000
Ni     -44.24601545      -1.51774180      -0.00000000 snap1000
Ni     -36.13548013      -1.61064051      -0.00000000 snap1000
Ni     -28.52548355      -1.57457046      -0.00000000 snap1000
Ni     -20.64649029      -1.51692686      -0.00000000 snap1000
Ni     -12.79296370      -1.50055647      -0.00000000 snap1000
Cr      -4.96425995      -1.57275335      -0.00000000 snap1000
Ni     -72.04077238      -3.43496808      -0.00000000 snap1000
Ni     -64.40487468      -3.20881510      -0.00000000 snap1000
Ni     -56.42269844      -3.23905535      -0.00000000 snap1000
Ni     -48.79544684      -3.17313728      -0.00000000 snap1000
Ni     -40.99303303      -3.12675916      -0.00000000 snap1000
Cr     -33.07901301      -3.16139257      -0.00000000 snap1000
Ni     -25.34624619      -3.16714454      -0.00000000 snap1000
Ni     -17.37822677      -3.16290103      -0.00000000 snap1000
Ni      -9.58258226      -3.16928008      -0.00000000 snap1000
Ni      -1.80402448      -3.10535945      -0.00000000 snap1000
Ni     -74.37312953      -0.39802026      -1.76000000 snap1000
Ni     -66.72612089      -0.10008855      -1.76000000 snap1000
Ni     -58.87500377      -0.03168310      -1.76000000 snap1000
Ni     -51.08384810      -0.05168013      -1.76000000 snap1000
Mo     -43.42309482       0.05423587      -1.76000000 snap1000
Ni     -35.33793897      -0.05046188      -1.76000000 snap1000
Mo     -27.71451327      -0.01360602      -1.76000000 snap1000
Ni     -19.81983296       0.00370909      -1.76000000 snap1000
Ni     -12.00797771       0.04657462      -1.76000000 snap1000
Ni      -4.16863381       0.02770678      -1.76000000 snap1000
Ni     -71.27674810      -1.84605302      -1.76000000 snap1000
Mo     -63.56964623      -1.63142928      -1.76000000 snap1000
Ni     -55.62797157      -1.69973845      -1.76000000 snap1000
Ni     -48.04476118      -1.59787039      -1.76000000 snap1000
Mo     -40.18047132      -1.55651229      -1.76000000 snap1000
Ni     -32.33394977      -1.57554564      -1.76000000 snap1000
Ni     -24.58735826      -1.57370996      -1.76000000 snap1000
Ni     -16.58897459      -1.55607091      -1.76000000 snap1000
Ni      -8.79565982      -1.59344306      -1.76000000 snap1000
Ni      -1.22253545      -1.55030326      -1.76000000 snap1000
Mo     -76.01981169      -3.65036733      -1.76000000 snap1000
Ni     -68.27116168      -3.29802145      -1.76000000 snap1000
Cr     -60.40801582      -3.20993410      -1.76000000 snap1000
Ni     -52.60907177      -3.20475737      -1.76000000 snap1000
Ni     -45.04192327      -3.06690098      -1.76000000 snap1000
Mo     -36.94306947      -3.17980793      -1.76000000 snap1000
Ni     -29.30807002      -3.11819613      -1.76000000 snap1000
Mo     -21.50648182      -3.10400727      -1.76000000 snap1000
Ni     -13.57809070      -3.08556760      -1.76000000 snap1000
Ni      -5.73072496      -3.15276694      -1.76000000 snap1000
Ni     -72.79394901      -1.10548433      -0.00000000 snap1000
Ni     -65.19156774      -0.84136944      -0.00000000 snap1000
Mo     -57.25395513      -0.86525461      -0.00000000 snap1000
Ni     -49.56967392      -0.82604437      -0.00000000 snap1000
Ni     -41.80739935      -0.75328870      -0.00000000 snap1000
Ni     -33.82987037      -0.81039409      -0.00000000 snap1000
Ni     -26.12276306      -0.83091756      -0.00000000 snap1000
Ni     -18.16201656      -0.78524374      -0.00000000 snap1000
Ni     -10.36851510      -0.77715719      -0.00000000 snap1000
Ni      -2.63463241      -0.72213359      -0.00000000 snap1000
Ni     -77.23970789      -2.61137118      -0.00000000 snap1000
Cr     -69.77733621      -2.56915674      -0.00000000 snap1000
Ni     -61.94350494      -2.46500632      -0.00000000 snap1000
Cr     -54.10478674      -2.45307725      -0.00000000 snap1000
Cr     -46.55282314      -2.33235644      -0.00000000 snap1000
Ni     -38.55646795      -2.36369972      -0.00000000 snap1000
Ni     -30.84915448      -2.34968180      -0.00000000 snap1000
Fe     -23.08706551      -2.28784732      -0.00000000 snap1000
Fe     -15.08741242      -2.31841140      -0.00000000 snap1000
Ni      -7.26372062      -2.37517954      -0.00000000 snap1000
130
Lattice="0.0 0.0 -3.52 2e-16 -3.9354796403996297 1.7600000000000007 -102.32247065039037 0.0 -6.3e-15" Properties=species:S:1:pos:R:3:frame_label:S:1 pbc="T T T"
Ni    -100.78005856      -3.06016089      -0.00000000 final
Ni     -93.01707573      -3.06913760      -0.00000000 final
Ni     -84.94649420      -2.87162246      -0.00000000 final
Fe     -97.62147758      -1.48039547      -0.00000000 final
Ni     -89.80276326      -1.44703272      -0.00000000 final
Fe     -81.79373632      -1.18607630      -0.00000000 final
Mo    -102.44029122      -0.04644815      -0.00000000 final
Ni     -94.54752769       0.07979918      -0.00000000 final
Ni     -86.53388475       0.24636216      -0.00000000 final
Ni     -99.11734312      -2.30162334      -1.76000000 final
Ni     -91.44236425      -2.26356701      -1.76000000 final
Ni     -83.39469283      -2.06171736      -1.76000000 final
Ni     -96.05516531      -0.69598870      -1.76000000 final
Ni     -88.17609801      -0.59564905      -1.76000000 final
Fe     -80.12891035      -0.32619684      -1.76000000 final
Ni     -98.39639676       0.08376390      -1.76000000 final
Mo     -90.62860936       0.11009910      -1.76000000 final
Ni     -82.58653645       0.34651373      -1.76000000 final
Ni     -95.31447591      -2.26799179      -0.00000000 final
Ni     -87.34388402      -2.13800003      -0.00000000 final
Ni     -79.42468928      -1.86219789      -0.00000000 final
Cr     -99.92658992      -0.67480491      -0.00000000 final
Ni     -92.23894860      -0.71655387      -0.00000000 final
Ni     -84.18219619      -0.49261539      -0.00000000 final
Ni     -96.84589569      -3.05246584      -1.76000000 final
Ni     -88.98856101      -2.98660526      -1.76000000 final
Ni     -80.95179055      -2.73495982      -1.76000000 final
Ni    -101.30926475      -1.51255093      -1.76000000 final
Cr     -93.78278631      -1.49657412      -1.76000000 final
Mo     -85.72899221      -1.29701604      -1.76000000 final
Ni     -77.69328685      -1.01673515      -1.76000000 final
Fe     -69.05084626      -1.02548157      -1.76000000 final
Ni     -61.30628570      -0.90614296      -1.76000000 final
Ni     -53.41618306      -0.84641613      -1.76000000 final
Ni     -45.50908478      -0.76487443      -1.76000000 final
Ni     -37.71023023      -0.79067977      -1.76000000 final
Cr     -30.10175544      -0.74931982      -1.76000000 final
Ni     -22.25697967      -0.76457581      -1.76000000 final
Ni     -14.35813141      -0.75365150      -1.76000000 final
Ni      -6.43954465      -0.76997950      -1.76000000 final
Mo     -73.61522699      -2.85144562      -1.76000000 final
Ni     -66.06505853      -2.48546033      -1.76000000 final
Ni     -58.28473785      -2.38025287      -1.76000000 final
Ni     -50.23461914      -2.40355737      -1.76000000 final
Ni     -42.32672497      -2.38357915      -1.76000000 final
Ni     -34.66106274      -2.35917604      -1.76000000 final
Ni     -26.86236810      -2.36327790      -1.76000000 final
Ni     -19.13153748      -2.31528730      -1.76000000 final
Ni     -11.16460994      -2.35686187      -1.76000000 final
Ni      -3.43470294      -2.35144243      -1.76000000 final
Ni     -78.59508411       0.48936948      -0.00000000 final
Ni     -70.57098758      -0.29971699      -0.00000000 final
Ni     -62.84966376      -0.11975702      -0.00000000 final
Ni     -55.04332922      -0.03671450      -0.00000000 final
Ni     -47.02798588      -0.03807678      -0.00000000 final
Ni     -39.22560726      -0.01416898      -0.00000000 final
Ni     -31.64136157       0.03362615      -0.00000000 final
Fe     -23.77452769       0.00505368      -0.00000000 final
Ni     -15.88359147       0.01209390      -0.00000000 final
Ni      -7.99304123      -0.00605540      -0.00000000 final
Ni     -75.02828096      -2.09197720      -0.00000000 final
Cr     -67.55835683      -1.74972913      -0.00000000 final
Cr     -59.80193448      -1.64526976      -0.00000000 final
Ni     -51.81866817      -1.64117895      -0.00000000 final
Mo     -43.96070353      -1.57932205      -0.00000000 final
Ni     -36.19043732      -1.57011297      -0.00000000 final
Ni     -28.52258468      -1.55306347      -0.00000000 final
Ni     -20.71140475      -1.52482406      -0.00000000 final
Mo     -12.81605507      -1.51222134      -0.00000000 final
Ni      -4.93520414      -1.56299584      -0.00000000 final
Ni     -72.09026452      -3.52098341      -0.00000000 final
Ni     -64.49020369      -3.26637525      -0.00000000 final
Mo     -56.67370567      -3.16435935      -0.00000000 final
Mo     -48.58985698      -3.19946333      -0.00000000 final
Cr     -40.73632135      -3.17486333      -0.00000000 final
Cr     -33.15940430      -3.13428828      -0.00000000 final
Ni     -25.29500539      -3.16366325      -0.00000000 final
Ni     -17.47796795      -3.12202856      -0.00000000 final
Ni      -9.54256428      -3.18444035      -0.00000000 final
Ni      -1.77505048      -3.09932969      -0.00000000 final
Ni     -74.40255022      -0.51084812      -1.76000000 final
Ni     -66.80253245      -0.14628139      -1.76000000 final
Ni     -59.06191029      -0.04285174      -1.76000000 final
Ni     -51.01732537      -0.02930699      -1.76000000 final
Ni     -43.11013509      -0.00909483      -1.76000000 final
Ni     -35.41987611       0.00927661      -1.76000000 final
Mo     -27.69743163       0.00997147      -1.76000000 final
Ni     -19.92692668       0.06063230      -1.76000000 final
Ni     -12.01853351       0.02654161      -1.76000000 final
Cr      -4.11927075       0.02803955      -1.76000000 final
Ni     -71.33190745      -1.91253428      -1.76000000 final
Mo     -63.68547422      -1.69284099      -1.76000000 final
Ni     -55.85075275      -1.59602880      -1.76000000 final
Ni     -47.80878588      -1.63846527      -1.76000000 final
Ni     -39.98281433      -1.59654161      -1.76000000 final
Ni     -32.39874690      -1.55412575      -1.76000000 final
Ni     -24.52081140      -1.57834987      -1.76000000 final
Ni     -16.66877530      -1.56748541      -1.76000000 final
Ni      -8.73818185      -1.59694249      -1.76000000 final
Ni      -1.22019138      -1.54545928      -1.76000000 final
Ni     -76.09327718      -3.78334650      -1.76000000 final
Ni     -68.30967764      -3.35661480      -1.76000000 final
Ni     -60.54632655      -3.23953782      -1.76000000 final
Mo     -52.60507505      -3.20757547      -1.76000000 final
Ni     -44.78241297      -3.08798919      -1.76000000 final
Cr     -36.95090897      -3.15094256      -1.76000000 final
Ni     -29.32015859      -3.10358484      -1.76000000 final
Ni     -21.48166287      -3.11210828      -1.76000000 final
Ni     -13.59308100      -3.10165258      -1.76000000 final
Ni      -5.70371537      -3.14002955      -1.76000000 final
Ni     -72.81633280      -1.20192987      -0.00000000 final
Ni     -65.29049670      -0.89100778      -0.00000000 final
Ni     -57.48608991      -0.80648173      -0.00000000 final
Ni     -49.42021367      -0.83531052      -0.00000000 final
Ni     -41.52116357      -0.83886587      -0.00000000 final
Ni     -33.91147588      -0.77682772      -0.00000000 final
Ni     -26.05941045      -0.82420278      -0.00000000 final
Mo     -18.30266902      -0.75071782      -0.00000000 final
Ni     -10.34192392      -0.79839841      -0.00000000 final
Ni      -2.62537444      -0.72545968      -0.00000000 final
Cr     -77.23271485      -2.55012089      -0.00000000 final
Ni     -69.81129937      -2.61840212      -0.00000000 final
Ni     -62.05950732      -2.50587550      -0.00000000 final
Ni     -54.24017958      -2.41419840      -0.00000000 final
Ni     -46.26055134      -2.37237252      -0.00000000 final
Ni     -38.46141586      -2.36647099      -0.00000000 final
Ni     -30.88500268      -2.32922380      -0.00000000 final
Ni     -23.02031991      -2.33914733      -0.00000000 final
Ni     -15.11821663      -2.33051751      -0.00000000 final
Mo      -7.23860874      -2.35888589      -0.00000000 final
