130
Lattice="0.0 0.0 -3.52 2e-16 -3.9354796403996297 1.7600000000000007 -102.32247065039037 0.0 -6.3e-15" Properties=species:S:1:pos:R:3:frame_label:S:1:Eseg:R:1:probed:I:1:trap:I:1 pbc="T T T"
Mo    -100.86056894      -2.76309966      -0.00000000 NiMoCrFe_S5_021_seed0_T900K_final       0.00000000        0        0
Ni     -92.89557095      -2.97155807      -0.00000000 NiMoCrFe_S5_021_seed0_T900K_final       0.00000000        0        0
Ni     -85.12440726      -3.16383285      -0.00000000 NiMoCrFe_S5_021_seed0_T900K_final       0.00000000        0        0
Ni     -97.45820690      -1.28386877      -0.00000000 NiMoCrFe_S5_021_seed0_T900K_final       0.00000000        0        0
Ni     -89.89760864      -1.51898792      -0.00000000 NiMoCrFe_S5_021_seed0_T900K_final       0.00000000        0        0
Ni     -82.05618367      -1.71801205      -0.00000000 NiMoCrFe_S5_021_seed0_T900K_final       0.00000000        0        0
Ni    -102.36565999      -0.21275857      -0.00000000 NiMoCrFe_S5_021_seed0_T900K_final      -0.66241000        1        0
Ni     -94.42799951       0.20619461      -0.00000000 NiMoCrFe_S5_021_seed0_T900K_final       0.00000000        0        0
Ni     -86.78727461       0.00013871      -0.00000000 NiMoCrFe_S5_021_seed0_T900K_final       0.00000000        0        0
Ni     -98.94293574      -2.04468623      -1.76000000 NiMoCrFe_S5_021_seed0_T900K_final       0.00000000        0        0
Cr     -91.39390921      -2.24453605      -1.76000000 NiMoCrFe_S5_021_seed0_T900K_final       0.00000000        0        0
Ni     -83.57753695      -2.41327776      -1.76000000 NiMoCrFe_S5_021_seed0_T900K_final       0.00000000        0        0
Cr     -95.96965095      -0.55140657      -1.76000000 NiMoCrFe_S5_021_seed0_T900K_final       0.00000000        0        0
Ni     -88.36216632      -0.76643254      -1.76000000 NiMoCrFe_S5_021_seed0_T900K_final       0.00000000        0        0
Mo     -79.89356578      -1.19753233      -1.76000000 NiMoCrFe_S5_021_seed0_T900K_final       0.00000000        0        0
Ni     -98.25643388       0.32149246      -1.76000000 NiMoCrFe_S5_021_seed0_T900K_final       0.00000000        0        0
Ni     -90.64509701       0.08571971      -1.76000000 NiMoCrFe_S5_021_seed0_T900K_final       0.00000000        0        0
Cr     -82.80201510      -0.12216985      -1.76000000 NiMoCrFe_S5_021_seed0_T900K_final       0.00000000        0        0
Ni     -95.20311891      -2.12911804      -0.00000000 NiMoCrFe_S5_021_seed0_T900K_final       0.00000000        0        0
Ni     -87.58700414      -2.36832505      -0.00000000 NiMoCrFe_S5_021_seed0_T900K_final       0.00000000        0        0
Ni     -80.00542597      -2.77809059      -0.00000000 NiMoCrFe_S5_021_seed0_T900K_final      -0.70759200        1        0
Ni     -99.74279594      -0.42369573      -0.00000000 NiMoCrFe_S5_021_seed0_T900K_final      -0.89627300        1        0
Ni     -92.14690407      -0.64120547      -0.00000000 NiMoCrFe_S5_021_seed0_T900K_final       0.00000000        0        0
Ni     -84.33096270      -0.79779584      -0.00000000 NiMoCrFe_S5_021_seed0_T900K_final       0.00000000        0        0
Ni     -96.70116472      -2.89164381      -1.76000000 NiMoCrFe_S5_021_seed0_T900K_final       0.00000000        0        0
Ni     -89.13877382      -3.10656444      -1.76000000 NiMoCrFe_S5_021_seed0_T900K_final       0.00000000        0        0
Ni     -81.33868244      -3.41117330      -1.76000000 NiMoCrFe_S5_021_seed0_T900K_final      -0.53696300        1        0
Ni    -101.11495143      -1.19749616      -1.76000000 NiMoCrFe_S5_021_seed0_T900K_final      -0.41490500        1        0
Ni     -93.65523142      -1.38982486      -1.76000000 NiMoCrFe_S5_021_seed0_T900K_final       0.00000000        0        0
Mo     -85.96953743      -1.57727888      -1.76000000 NiMoCrFe_S5_021_seed0_T900K_final       0.00000000        0        0
Ni     -77.12698243      -0.55699058      -1.76000000 NiMoCrFe_S5_021_seed0_T900K_final      -0.32448000        1        0
Ni     -69.30791886      -0.77186279      -1.76000000 NiMoCrFe_S5_021_seed0_T900K_final       0.00000000        0        0
Ni     -61.44471927      -0.71059473      -1.76000000 NiMoCrFe_S5_021_seed0_T900K_final       0.00000000        0        0
Ni     -53.47940169      -0.79244800      -1.76000000 NiMoCrFe_S5_021_seed0_T900K_final       0.00000000        0        0
Ni     -45.66172009      -0.72163427      -1.76000000 NiMoCrFe_S5_021_seed0_T900K_final       0.00000000        0        0
Ni     -37.81190168      -0.76823067      -1.76000000 NiMoCrFe_S5_021_seed0_T900K_final       0.00000000        0        0
Ni     -29.90821232      -0.79491842      -1.76000000 NiMoCrFe_S5_021_seed0_T900K_final       0.00000000        0        0
Cr     -21.82960476      -0.90852495      -1.76000000 NiMoCrFe_S5_021_seed0_T900K_final       0.00000000        0        0
Ni     -14.15787371      -0.89160241      -1.76000000 NiMoCrFe_S5_021_seed0_T900K_final       0.00000000        0        0
Ni      -6.43239897      -0.97780176      -1.76000000 NiMoCrFe_S5_021_seed0_T900K_final       0.00000000        0        0
Ni     -73.84284972      -2.32448325      -1.76000000 NiMoCrFe_S5_021_seed0_T900K_final       0.00000000        0        0
Ni     -66.06919801      -2.35016104      -1.76000000 NiMoCrFe_S5_021_seed0_T900K_final       0.00000000        0        0
Ni     -58.22745376      -2.35828403      -1.76000000 NiMoCrFe_S5_021_seed0_T900K_final       0.00000000        0        0
Cr     -50.38632439      -2.30773132      -1.76000000 NiMoCrFe_S5_021_seed0_T900K_final       0.00000000        0        0
Mo     -42.47493712      -2.34921848      -1.76000000 NiMoCrFe_S5_021_seed0_T900K_final       0.00000000        0        0
Ni     -34.58189210      -2.36458755      -1.76000000 NiMoCrFe_S5_021_seed0_T900K_final       0.00000000        0        0
Ni     -26.62928833      -2.39950830      -1.76000000 NiMoCrFe_S5_021_seed0_T900K_final       0.00000000        0        0
Ni     -18.76197155      -2.46681241      -1.76000000 NiMoCrFe_S5_021_seed0_T900K_final       0.00000000        0        0
Cr     -11.08991858      -2.47545771      -1.76000000 NiMoCrFe_S5_021_seed0_T900K_final       0.00000000        0        0
Ni      -3.35834838      -2.53882712      -1.76000000 NiMoCrFe_S5_021_seed0_T900K_final       0.00000000        0        0
Ni     -78.69656434       0.28948980      -0.00000000 NiMoCrFe_S5_021_seed0_T900K_final      -0.87100500        1        0
Ni     -70.81399433       0.00394319      -0.00000000 NiMoCrFe_S5_021_seed0_T900K_final       0.00000000        0        0
Ni     -62.98952092       0.03973462      -0.00000000 NiMoCrFe_S5_021_seed0_T900K_final       0.00000000        0        0
Ni     -55.12457678       0.00761220      -0.00000000 NiMoCrFe_S5_021_seed0_T900K_final       0.00000000        0        0
Ni     -47.30922988       0.08676301      -0.00000000 NiMoCrFe_S5_021_seed0_T900K_final       0.00000000        0        0
Cr     -39.33095107      -0.00264425      -0.00000000 NiMoCrFe_S5_021_seed0_T900K_final       0.00000000        0        0
Ni     -31.47919716       0.00052877      -0.00000000 NiMoCrFe_S5_021_seed0_T900K_final       0.00000000        0        0
Ni     -23.37304647      -0.13751833      -0.00000000 NiMoCrFe_S5_021_seed0_T900K_final       0.00000000        0        0
Ni     -15.68220821      -0.09797379      -0.00000000 NiMoCrFe_S5_021_seed0_T900K_final       0.00000000        0        0
Ni      -7.99409049      -0.16969770      -0.00000000 NiMoCrFe_S5_021_seed0_T900K_final       0.00000000        0        0
Ni     -75.42228520      -1.45256342      -0.00000000 NiMoCrFe_S5_021_seed0_T900K_final       0.00000000        0        0
Ni     -67.71868409      -1.55166692      -0.00000000 NiMoCrFe_S5_021_seed0_T900K_final       0.00000000        0        0
Mo     -59.83972226      -1.53131788      -0.00000000 NiMoCrFe_S5_021_seed0_T900K_final       0.00000000        0        0
Ni     -51.88638771      -1.56864046      -0.00000000 NiMoCrFe_S5_021_seed0_T900K_final       0.00000000        0        0
Ni     -44.07756447      -1.51628216      -0.00000000 NiMoCrFe_S5_021_seed0_T900K_final       0.00000000        0        0
Ni     -36.24214375      -1.56097305      -0.00000000 NiMoCrFe_S5_021_seed0_T900K_final       0.00000000        0        0
Ni     -28.23314182      -1.60743577      -0.00000000 NiMoCrFe_S5_021_seed0_T900K_final       0.00000000        0        0
Ni     -20.31380717      -1.67809965      -0.00000000 NiMoCrFe_S5_021_seed0_T900K_final       0.00000000        0        0
Ni     -12.61757821      -1.68561698      -0.00000000 NiMoCrFe_S5_021_seed0_T900K_final       0.00000000        0        0
Ni      -4.88420904      -1.75120099      -0.00000000 NiMoCrFe_S5_021_seed0_T900K_final       0.00000000        0        0
Fe     -72.32999543      -3.13921512      -0.00000000 NiMoCrFe_S5_021_seed0_T900K_final       0.00000000        0        0
Ni     -64.50908860      -3.14063438      -0.00000000 NiMoCrFe_S5_021_seed0_T900K_final       0.00000000        0        0
Ni     -56.68593118      -3.13300233      -0.00000000 NiMoCrFe_S5_021_seed0_T900K_final       0.00000000        0        0
Ni     -48.89331517      -3.05619089      -0.00000000 NiMoCrFe_S5_021_seed0_T900K_final       0.00000000        0        0
Ni     -40.86425906      -3.17108243      -0.00000000 NiMoCrFe_S5_021_seed0_T900K_final       0.00000000        0        0
Ni     -33.00370099      -3.15978707      -0.00000000 NiMoCrFe_S5_021_seed0_T900K_final       0.00000000        0        0
Mo     -25.01389624      -3.23171746      -0.00000000 NiMoCrFe_S5_021_seed0_T900K_final       0.00000000        0        0
Fe     -17.20449155      -3.24308397      -0.00000000 NiMoCrFe_S5_021_seed0_T900K_final       0.00000000        0        0
Ni      -9.55258965      -3.29406006      -0.00000000 NiMoCrFe_S5_021_seed0_T900K_final       0.00000000        0        0
Mo      -1.69599427      -3.36702423      -0.00000000 NiMoCrFe_S5_021_seed0_T900K_final       0.00000000        0        0
Ni     -74.64909558       0.06187131      -1.76000000 NiMoCrFe_S5_021_seed0_T900K_final       0.00000000        0        0
Mo     -66.89806201       0.01686932      -1.76000000 NiMoCrFe_S5_021_seed0_T900K_final       0.00000000        0        0
Ni     -59.01715238       0.02886254      -1.76000000 NiMoCrFe_S5_021_seed0_T900K_final       0.00000000        0        0
Ni     -51.14623962       0.02941329      -1.76000000 NiMoCrFe_S5_021_seed0_T900K_final       0.00000000        0        0
Ni     -43.29016279       0.02671040      -1.76000000 NiMoCrFe_S5_021_seed0_T900K_final       0.00000000        0        0
Mo     -35.41761282       0.00717809      -1.76000000 NiMoCrFe_S5_021_seed0_T900K_final       0.00000000        0        0
Ni     -27.43670375      -0.05661555      -1.76000000 NiMoCrFe_S5_021_seed0_T900K_final       0.00000000        0        0
Ni     -19.54746085      -0.10400089      -1.76000000 NiMoCrFe_S5_021_seed0_T900K_final       0.00000000        0        0
Ni     -11.84926596      -0.10998260      -1.76000000 NiMoCrFe_S5_021_seed0_T900K_final       0.00000000        0        0
Fe      -4.11671669      -0.18393223      -1.76000000 NiMoCrFe_S5_021_seed0_T900K_final       0.00000000        0        0
Ni     -71.56923831      -1.57237362      -1.76000000 NiMoCrFe_S5_021_seed0_T900K_final       0.00000000        0        0
Cr     -63.74156779      -1.54687678      -1.76000000 NiMoCrFe_S5_021_seed0_T900K_final       0.00000000        0        0
Ni     -55.91342953      -1.54500144      -1.76000000 NiMoCrFe_S5_021_seed0_T900K_final       0.00000000        0        0
Ni     -48.10292856      -1.46893855      -1.76000000 NiMoCrFe_S5_021_seed0_T900K_final       0.00000000        0        0
Ni     -40.09045115      -1.58631650      -1.76000000 NiMoCrFe_S5_021_seed0_T900K_final       0.00000000        0        0
Cr     -32.24129045      -1.58086546      -1.76000000 NiMoCrFe_S5_021_seed0_T900K_final       0.00000000        0        0
Ni     -24.16926342      -1.67395701      -1.76000000 NiMoCrFe_S5_021_seed0_T900K_final       0.00000000        0        0
Ni     -16.43958106      -1.68154837      -1.76000000 NiMoCrFe_S5_021_seed0_T900K_final       0.00000000        0        0
Ni      -8.78660761      -1.73371470      -1.76000000 NiMoCrFe_S5_021_seed0_T900K_final       0.00000000        0        0
Ni      -0.97445129      -1.82524851      -1.76000000 NiMoCrFe_S5_021_seed0_T900K_final      -0.39038700        1        0
Mo     -76.25917531      -2.97755936      -1.76000000 NiMoCrFe_S5_021_seed0_T900K_final       0.00000000        0        0
Ni     -68.51590419      -3.11504284      -1.76000000 NiMoCrFe_S5_021_seed0_T900K_final       0.00000000        0        0
Ni     -60.65863605      -3.08965666      -1.76000000 NiMoCrFe_S5_021_seed0_T900K_final       0.00000000        0        0
Ni     -52.67424849      -3.16412317      -1.76000000 NiMoCrFe_S5_021_seed0_T900K_final       0.00000000        0        0
Ni     -44.88171383      -3.11361898      -1.76000000 NiMoCrFe_S5_021_seed0_T900K_final       0.00000000        0        0
Ni     -37.03748691      -3.11864831      -1.76000000 NiMoCrFe_S5_021_seed0_T900K_final       0.00000000        0        0
Mo     -29.05924749      -3.16817528      -1.76000000 NiMoCrFe_S5_021_seed0_T900K_final       0.00000000        0        0
Ni     -21.07277159      -3.26838077      -1.76000000 NiMoCrFe_S5_021_seed0_T900K_final       0.00000000        0        0
Ni     -13.39182703      -3.24753883      -1.76000000 NiMoCrFe_S5_021_seed0_T900K_final       0.00000000        0        0
Ni      -5.66255750      -3.33495986      -1.76000000 NiMoCrFe_S5_021_seed0_T900K_final       0.00000000        0        0
Ni     -73.07566267      -0.77970744      -0.00000000 NiMoCrFe_S5_021_seed0_T900K_final       0.00000000        0        0
Ni     -65.27725298      -0.79527169      -0.00000000 NiMoCrFe_S5_021_seed0_T900K_final       0.00000000        0        0
Fe     -57.44218490      -0.78057043      -0.00000000 NiMoCrFe_S5_021_seed0_T900K_final       0.00000000        0        0
Ni     -49.62919927      -0.71356543      -0.00000000 NiMoCrFe_S5_021_seed0_T900K_final       0.00000000        0        0
Ni     -41.64985985      -0.78492825      -0.00000000 NiMoCrFe_S5_021_seed0_T900K_final       0.00000000        0        0
Ni     -33.78131690      -0.82098719      -0.00000000 NiMoCrFe_S5_021_seed0_T900K_final       0.00000000        0        0
Ni     -25.83398149      -0.85436917      -0.00000000 NiMoCrFe_S5_021_seed0_T900K_final       0.00000000        0        0
Ni     -17.99474926      -0.88509546      -0.00000000 NiMoCrFe_S5_021_seed0_T900K_final       0.00000000        0        0
Ni     -10.31833007      -0.92962444      -0.00000000 NiMoCrFe_S5_021_seed0_T900K_final       0.00000000        0        0
Ni      -2.55290453      -0.97947404      -0.00000000 NiMoCrFe_S5_021_seed0_T900K_final       0.17923500        1        0
Ni     -77.84679041      -2.03589243      -0.00000000 NiMoCrFe_S5_021_seed0_T900K_final      -0.57186200        1        0
Ni     -70.06632862      -2.34185210      -0.00000000 NiMoCrFe_S5_021_seed0_T900K_final       0.00000000        0        0
Ni     -62.22757401      -2.30538908      -0.00000000 NiMoCrFe_S5_021_seed0_T900K_final       0.00000000        0        0
Mo     -54.29504232      -2.36126458      -0.00000000 NiMoCrFe_S5_021_seed0_T900K_final       0.00000000        0        0
Mo     -46.48795268      -2.28289427      -0.00000000 NiMoCrFe_S5_021_seed0_T900K_final       0.00000000        0        0
Ni     -38.57657328      -2.35288604      -0.00000000 NiMoCrFe_S5_021_seed0_T900K_final       0.00000000        0        0
Ni     -30.70166145      -2.33786323      -0.00000000 NiMoCrFe_S5_021_seed0_T900K_final       0.00000000        0        0
Ni     -22.60199872      -2.48850783      -0.00000000 NiMoCrFe_S5_021_seed0_T900K_final       0.00000000        0        0
Cr     -14.91730338      -2.46257193      -0.00000000 NiMoCrFe_S5_021_seed0_T900K_final       0.00000000        0        0
Fe      -7.21788519      -2.53619156      -0.00000000 NiMoCrFe_S5_021_seed0_T900K_final       0.00000000        0        0
130
Lattice="0.0 0.0 -3.52 2e-16 -3.9354796403996297 1.7600000000000007 -102.32247065039037 0.0 -6.3e-15" Properties=species:S:1:pos:R:3:frame_label:S:1:Eseg:R:1:probed:I:1:trap:I:1 pbc="T T T"
Mo    -100.97508581      -2.75602724      -0.00000000 NiMoCrFe_S5_021_seed0_T900K_snap_1000       0.00000000        0        0
Ni     -92.88557342      -2.99175217      -0.00000000 NiMoCrFe_S5_021_seed0_T900K_snap_1000       0.00000000        0        0
Ni     -85.07246027      -3.14969137      -0.00000000 NiMoCrFe_S5_021_seed0_T900K_snap_1000       0.00000000        0        0
Ni     -97.44495537      -1.24677158      -0.00000000 NiMoCrFe_S5_021_seed0_T900K_snap_1000       0.00000000        0        0
Ni     -89.86279533      -1.53811957      -0.00000000 NiMoCrFe_S5_021_seed0_T900K_snap_1000       0.00000000        0        0
Ni     -82.04836835      -1.62754798      -0.00000000 NiMoCrFe_S5_021_seed0_T900K_snap_1000       0.00000000        0        0
Ni    -102.37086518      -0.29913791      -0.00000000 NiMoCrFe_S5_021_seed0_T900K_snap_1000       1.07359700        1        0
Ni     -94.43778912       0.20305443      -0.00000000 NiMoCrFe_S5_021_seed0_T900K_snap_1000       0.00000000        0        0
Ni     -86.64929199       0.01819687      -0.00000000 NiMoCrFe_S5_021_seed0_T900K_snap_1000       0.00000000        0        0
Ni     -98.98048759      -2.03468557      -1.76000000 NiMoCrFe_S5_021_seed0_T900K_snap_1000       0.00000000        0        0
Ni     -91.37412536      -2.25677938      -1.76000000 NiMoCrFe_S5_021_seed0_T900K_snap_1000       0.00000000        0        0
Ni     -83.56149577      -2.40481849      -1.76000000 NiMoCrFe_S5_021_seed0_T900K_snap_1000       0.00000000        0        0
Cr     -95.94758702      -0.51979667      -1.76000000 NiMoCrFe_S5_021_seed0_T900K_snap_1000       0.00000000        0        0
Ni     -88.29983342      -0.76459774      -1.76000000 NiMoCrFe_S5_021_seed0_T900K_snap_1000       0.00000000        0        0
Mo     -80.32341536      -0.86735809      -1.76000000 NiMoCrFe_S5_021_seed0_T900K_snap_1000       0.00000000        0        0
Ni     -98.25070184       0.33848446      -1.76000000 NiMoCrFe_S5_021_seed0_T900K_snap_1000       0.00000000        0        0
Cr     -90.62635330       0.06965501      -1.76000000 NiMoCrFe_S5_021_seed0_T900K_snap_1000       0.00000000        0        0
Ni     -82.76852385      -0.06393840      -1.76000000 NiMoCrFe_S5_021_seed0_T900K_snap_1000       0.00000000        0        0
Ni     -95.18696326      -2.12644458      -0.00000000 NiMoCrFe_S5_021_seed0_T900K_snap_1000       0.00000000        0        0
Mo     -87.46395853      -2.34143626      -0.00000000 NiMoCrFe_S5_021_seed0_T900K_snap_1000       0.00000000        0        0
Ni     -79.80161367      -2.41045492      -0.00000000 NiMoCrFe_S5_021_seed0_T900K_snap_1000       0.51900400        1        0
Ni     -99.75729153      -0.40153921      -0.00000000 NiMoCrFe_S5_021_seed0_T900K_snap_1000       0.73405700        1        0
Ni     -92.12874512      -0.64702020      -0.00000000 NiMoCrFe_S5_021_seed0_T900K_snap_1000       0.00000000        0        0
Ni     -84.32253669      -0.80237518      -0.00000000 NiMoCrFe_S5_021_seed0_T900K_snap_1000       0.00000000        0        0
Ni     -96.69548363      -2.85800163      -1.76000000 NiMoCrFe_S5_021_seed0_T900K_snap_1000       0.00000000        0        0
Ni     -89.10235896      -3.14729019      -1.76000000 NiMoCrFe_S5_021_seed0_T900K_snap_1000       0.00000000        0        0
Ni     -81.24679490      -3.23640810      -1.76000000 NiMoCrFe_S5_021_seed0_T900K_snap_1000       0.03708700        1        0
Cr    -101.07873245      -1.17731200      -1.76000000 NiMoCrFe_S5_021_seed0_T900K_snap_1000       0.00000000        0        0
Ni     -93.67912752      -1.38388109      -1.76000000 NiMoCrFe_S5_021_seed0_T900K_snap_1000       0.00000000        0        0
Ni     -85.85211660      -1.54920783      -1.76000000 NiMoCrFe_S5_021_seed0_T900K_snap_1000       0.00000000        0        0
Mo     -77.03563925      -0.78556793      -1.76000000 NiMoCrFe_S5_021_seed0_T900K_snap_1000       0.00000000        0        0
Ni     -69.28617709      -0.75395739      -1.76000000 NiMoCrFe_S5_021_seed0_T900K_snap_1000       0.00000000        0        0
Ni     -61.30525381      -0.82635081      -1.76000000 NiMoCrFe_S5_021_seed0_T900K_snap_1000       0.00000000        0        0
Ni     -53.57963446      -0.74982528      -1.76000000 NiMoCrFe_S5_021_seed0_T900K_snap_1000       0.00000000        0        0
Ni     -45.75366747      -0.73386002      -1.76000000 NiMoCrFe_S5_021_seed0_T900K_snap_1000       0.00000000        0        0
Ni     -37.79939849      -0.74656641      -1.76000000 NiMoCrFe_S5_021_seed0_T900K_snap_1000       0.00000000        0        0
Ni     -29.88994562      -0.82651258      -1.76000000 NiMoCrFe_S5_021_seed0_T900K_snap_1000       0.00000000        0        0
Ni     -21.93841971      -0.86082669      -1.76000000 NiMoCrFe_S5_021_seed0_T900K_snap_1000       0.00000000        0        0
Ni     -14.05749933      -0.91813404      -1.76000000 NiMoCrFe_S5_021_seed0_T900K_snap_1000       0.00000000        0        0
Ni      -6.41127481      -0.94208508      -1.76000000 NiMoCrFe_S5_021_seed0_T900K_snap_1000       0.00000000        0        0
Cr     -73.82195443      -2.37350921      -1.76000000 NiMoCrFe_S5_021_seed0_T900K_snap_1000       0.00000000        0        0
Ni     -66.10334898      -2.35860752      -1.76000000 NiMoCrFe_S5_021_seed0_T900K_snap_1000       0.00000000        0        0
Ni     -58.29425193      -2.33440709      -1.76000000 NiMoCrFe_S5_021_seed0_T900K_snap_1000       0.00000000        0        0
Ni     -50.48249542      -2.29780550      -1.76000000 NiMoCrFe_S5_021_seed0_T900K_snap_1000       0.00000000        0        0
Mo     -42.53344616      -2.35078404      -1.76000000 NiMoCrFe_S5_021_seed0_T900K_snap_1000       0.00000000        0        0
Ni     -34.53519052      -2.39350832      -1.76000000 NiMoCrFe_S5_021_seed0_T900K_snap_1000       0.00000000        0        0
Ni     -26.73415570      -2.41318402      -1.76000000 NiMoCrFe_S5_021_seed0_T900K_snap_1000       0.00000000        0        0
Ni     -18.85258733      -2.40153615      -1.76000000 NiMoCrFe_S5_021_seed0_T900K_snap_1000       0.00000000        0        0
Ni     -11.02123006      -2.46329243      -1.76000000 NiMoCrFe_S5_021_seed0_T900K_snap_1000       0.00000000        0        0
Ni      -3.31497144      -2.57301402      -1.76000000 NiMoCrFe_S5_021_seed0_T900K_snap_1000       0.00000000        0        0
Ni     -78.68619948       0.13068146      -0.00000000 NiMoCrFe_S5_021_seed0_T900K_snap_1000       0.25931000        1        0
Ni     -70.78764878       0.01893932      -0.00000000 NiMoCrFe_S5_021_seed0_T900K_snap_1000       0.00000000        0        0
Ni     -62.86345484      -0.04746794      -0.00000000 NiMoCrFe_S5_021_seed0_T900K_snap_1000       0.00000000        0        0
Ni     -55.22104025       0.05218060      -0.00000000 NiMoCrFe_S5_021_seed0_T900K_snap_1000       0.00000000        0        0
Ni     -47.41059573       0.07643270      -0.00000000 NiMoCrFe_S5_021_seed0_T900K_snap_1000       0.00000000        0        0
Ni     -39.35805833       0.01333121      -0.00000000 NiMoCrFe_S5_021_seed0_T900K_snap_1000       0.00000000        0        0
Ni     -31.41768258      -0.02764623      -0.00000000 NiMoCrFe_S5_021_seed0_T900K_snap_1000       0.00000000        0        0
Ni     -23.47604172      -0.08521016      -0.00000000 NiMoCrFe_S5_021_seed0_T900K_snap_1000       0.00000000        0        0
Ni     -15.61260156      -0.12602437      -0.00000000 NiMoCrFe_S5_021_seed0_T900K_snap_1000       0.00000000        0        0
Fe      -7.94868846      -0.12296151      -0.00000000 NiMoCrFe_S5_021_seed0_T900K_snap_1000       0.00000000        0        0
Ni     -75.31756472      -1.58687799      -0.00000000 NiMoCrFe_S5_021_seed0_T900K_snap_1000       0.00000000        0        0
Ni     -67.73575013      -1.55119696      -0.00000000 NiMoCrFe_S5_021_seed0_T900K_snap_1000       0.00000000        0        0
Fe     -59.78889694      -1.58130082      -0.00000000 NiMoCrFe_S5_021_seed0_T900K_snap_1000       0.00000000        0        0
Ni     -51.99353841      -1.53571281      -0.00000000 NiMoCrFe_S5_021_seed0_T900K_snap_1000       0.00000000        0        0
Ni     -44.15159691      -1.52518665      -0.00000000 NiMoCrFe_S5_021_seed0_T900K_snap_1000       0.00000000        0        0
Mo     -36.17121740      -1.56463224      -0.00000000 NiMoCrFe_S5_021_seed0_T900K_snap_1000       0.00000000        0        0
Ni     -28.33903934      -1.61002331      -0.00000000 NiMoCrFe_S5_021_seed0_T900K_snap_1000       0.00000000        0        0
Ni     -20.40692009      -1.63104042      -0.00000000 NiMoCrFe_S5_021_seed0_T900K_snap_1000       0.00000000        0        0
Cr     -12.52964099      -1.68508100      -0.00000000 NiMoCrFe_S5_021_seed0_T900K_snap_1000       0.00000000        0        0
Fe      -4.88328177      -1.76566889      -0.00000000 NiMoCrFe_S5_021_seed0_T900K_snap_1000       0.00000000        0        0
Ni     -72.30959085      -3.13974708      -0.00000000 NiMoCrFe_S5_021_seed0_T900K_snap_1000       0.00000000        0        0
Ni     -64.48979523      -3.18077658      -0.00000000 NiMoCrFe_S5_021_seed0_T900K_snap_1000       0.00000000        0        0
Ni     -56.78231073      -3.09361553      -0.00000000 NiMoCrFe_S5_021_seed0_T900K_snap_1000       0.00000000        0        0
Ni     -48.97180024      -3.05683091      -0.00000000 NiMoCrFe_S5_021_seed0_T900K_snap_1000       0.00000000        0        0
Ni     -40.91322740      -3.16490913      -0.00000000 NiMoCrFe_S5_021_seed0_T900K_snap_1000       0.00000000        0        0
Ni     -32.96711356      -3.17316276      -0.00000000 NiMoCrFe_S5_021_seed0_T900K_snap_1000       0.00000000        0        0
Ni     -25.06588151      -3.22164243      -0.00000000 NiMoCrFe_S5_021_seed0_T900K_snap_1000       0.00000000        0        0
Mo     -17.24743081      -3.23356282      -0.00000000 NiMoCrFe_S5_021_seed0_T900K_snap_1000       0.00000000        0        0
Ni      -9.46513711      -3.25774611      -0.00000000 NiMoCrFe_S5_021_seed0_T900K_snap_1000       0.00000000        0        0
Mo      -1.66334130      -3.41468080      -0.00000000 NiMoCrFe_S5_021_seed0_T900K_snap_1000       0.00000000        0        0
Ni     -74.60057351      -0.01600249      -1.76000000 NiMoCrFe_S5_021_seed0_T900K_snap_1000       0.00000000        0        0
Mo     -66.91251856       0.01575520      -1.76000000 NiMoCrFe_S5_021_seed0_T900K_snap_1000       0.00000000        0        0
Ni     -59.04552375       0.01062748      -1.76000000 NiMoCrFe_S5_021_seed0_T900K_snap_1000       0.00000000        0        0
Ni     -51.23573016       0.03621822      -1.76000000 NiMoCrFe_S5_021_seed0_T900K_snap_1000       0.00000000        0        0
Ni     -43.36166016       0.02029487      -1.76000000 NiMoCrFe_S5_021_seed0_T900K_snap_1000       0.00000000        0        0
Ni     -35.33942968      -0.00298801      -1.76000000 NiMoCrFe_S5_021_seed0_T900K_snap_1000       0.00000000        0        0
Ni     -27.55447428      -0.01975287      -1.76000000 NiMoCrFe_S5_021_seed0_T900K_snap_1000       0.00000000        0        0
Ni     -19.64242783      -0.05229288      -1.76000000 NiMoCrFe_S5_021_seed0_T900K_snap_1000       0.00000000        0        0
Ni     -11.77884560      -0.11090936      -1.76000000 NiMoCrFe_S5_021_seed0_T900K_snap_1000       0.00000000        0        0
Ni      -4.08781703      -0.19833747      -1.76000000 NiMoCrFe_S5_021_seed0_T900K_snap_1000       0.00000000        0        0
Ni     -71.55034440      -1.57576278      -1.76000000 NiMoCrFe_S5_021_seed0_T900K_snap_1000       0.00000000        0        0
Mo     -63.67649816      -1.61746358      -1.76000000 NiMoCrFe_S5_021_seed0_T900K_snap_1000       0.00000000        0        0
Ni     -56.00576687      -1.50394714      -1.76000000 NiMoCrFe_S5_021_seed0_T900K_snap_1000       0.00000000        0        0
Ni     -48.20338962      -1.46206752      -1.76000000 NiMoCrFe_S5_021_seed0_T900K_snap_1000       0.00000000        0        0
Ni     -40.12303970      -1.57346371      -1.76000000 NiMoCrFe_S5_021_seed0_T900K_snap_1000       0.00000000        0        0
Cr     -32.22238297      -1.60306778      -1.76000000 NiMoCrFe_S5_021_seed0_T900K_snap_1000       0.00000000        0        0
Ni     -24.26257034      -1.66817809      -1.76000000 NiMoCrFe_S5_021_seed0_T900K_snap_1000       0.00000000        0        0
Ni     -16.40714753      -1.66858416      -1.76000000 NiMoCrFe_S5_021_seed0_T900K_snap_1000       0.00000000        0        0
Ni      -8.70873809      -1.69644132      -1.76000000 NiMoCrFe_S5_021_seed0_T900K_snap_1000       0.00000000        0        0
Ni      -0.91172913      -1.88395410      -1.76000000 NiMoCrFe_S5_021_seed0_T900K_snap_1000       1.08666300        1        0
Ni     -76.12615342      -3.16445401      -1.76000000 NiMoCrFe_S5_021_seed0_T900K_snap_1000       0.19226800        1        0
Ni     -68.52862683      -3.09147580      -1.76000000 NiMoCrFe_S5_021_seed0_T900K_snap_1000       0.00000000        0        0
Ni     -60.55227699      -3.17343903      -1.76000000 NiMoCrFe_S5_021_seed0_T900K_snap_1000       0.00000000        0        0
Ni     -52.78663903      -3.12821145      -1.76000000 NiMoCrFe_S5_021_seed0_T900K_snap_1000       0.00000000        0        0
Ni     -44.95931256      -3.12492648      -1.76000000 NiMoCrFe_S5_021_seed0_T900K_snap_1000       0.00000000        0        0
Ni     -37.00688841      -3.12835562      -1.76000000 NiMoCrFe_S5_021_seed0_T900K_snap_1000       0.00000000        0        0
Cr     -29.09874233      -3.18065364      -1.76000000 NiMoCrFe_S5_021_seed0_T900K_snap_1000       0.00000000        0        0
Ni     -21.16771783      -3.21288267      -1.76000000 NiMoCrFe_S5_021_seed0_T900K_snap_1000       0.00000000        0        0
Ni     -13.30044080      -3.26964901      -1.76000000 NiMoCrFe_S5_021_seed0_T900K_snap_1000       0.00000000        0        0
Ni      -5.64811771      -3.31831351      -1.76000000 NiMoCrFe_S5_021_seed0_T900K_snap_1000       0.00000000        0        0
Ni     -73.06072361      -0.78899004      -0.00000000 NiMoCrFe_S5_021_seed0_T900K_snap_1000       0.00000000        0        0
Ni     -65.29418435      -0.80119064      -0.00000000 NiMoCrFe_S5_021_seed0_T900K_snap_1000       0.00000000        0        0
Ni     -57.54030434      -0.74615279      -0.00000000 NiMoCrFe_S5_021_seed0_T900K_snap_1000       0.00000000        0        0
Cr     -49.72688718      -0.70500355      -0.00000000 NiMoCrFe_S5_021_seed0_T900K_snap_1000       0.00000000        0        0
Ni     -41.70238940      -0.78262231      -0.00000000 NiMoCrFe_S5_021_seed0_T900K_snap_1000       0.00000000        0        0
Ni     -33.73707841      -0.81677709      -0.00000000 NiMoCrFe_S5_021_seed0_T900K_snap_1000       0.00000000        0        0
Mo     -25.90400336      -0.84936713      -0.00000000 NiMoCrFe_S5_021_seed0_T900K_snap_1000       0.00000000        0        0
Ni     -18.06169697      -0.85423108      -0.00000000 NiMoCrFe_S5_021_seed0_T900K_snap_1000       0.00000000        0        0
Ni     -10.26012576      -0.89817569      -0.00000000 NiMoCrFe_S5_021_seed0_T900K_snap_1000       0.00000000        0        0
Ni      -2.50439322      -1.02428367      -0.00000000 NiMoCrFe_S5_021_seed0_T900K_snap_1000       0.99964800        1        0
Ni     -77.59649394      -2.32138844      -0.00000000 NiMoCrFe_S5_021_seed0_T900K_snap_1000       0.57502800        1        0
Cr     -70.03515841      -2.33410559      -0.00000000 NiMoCrFe_S5_021_seed0_T900K_snap_1000       0.00000000        0        0
Ni     -62.07625833      -2.42162003      -0.00000000 NiMoCrFe_S5_021_seed0_T900K_snap_1000       0.00000000        0        0
Mo     -54.40326304      -2.31731678      -0.00000000 NiMoCrFe_S5_021_seed0_T900K_snap_1000       0.00000000        0        0
Mo     -46.56860152      -2.29507184      -0.00000000 NiMoCrFe_S5_021_seed0_T900K_snap_1000       0.00000000        0        0
Ni     -38.58989711      -2.33593324      -0.00000000 NiMoCrFe_S5_021_seed0_T900K_snap_1000       0.00000000        0        0
Ni     -30.66035869      -2.39521806      -0.00000000 NiMoCrFe_S5_021_seed0_T900K_snap_1000       0.00000000        0        0
Fe     -22.68684598      -2.43907298      -0.00000000 NiMoCrFe_S5_021_seed0_T900K_snap_1000       0.00000000        0        0
Fe     -14.81387247      -2.48491691      -0.00000000 NiMoCrFe_S5_021_seed0_T900K_snap_1000       0.00000000        0        0
Cr      -7.17270789      -2.50334748      -0.00000000 NiMoCrFe_S5_021_seed0_T900K_snap_1000       0.00000000        0        0
130
Lattice="0.0 0.0 -3.52 2e-16 -3.9354796403996297 1.7600000000000007 -102.32247065039037 0.0 -6.3e-15" Properties=species:S:1:pos:R:3:frame_label:S:1:Eseg:R:1:probed:I:1:trap:I:1 pbc="T T T"
Cr    -100.57863932      -3.35312756      -0.00000000 NiMoCrFe_S5_021_seed1_T900K_final       0.00000000        0        0
Fe     -92.81375159      -3.20194720      -0.00000000 NiMoCrFe_S5_021_seed1_T900K_final       0.00000000        0        0
Ni     -85.02260425      -3.04741871      -0.00000000 NiMoCrFe_S5_021_seed1_T900K_final       0.00000000        0        0
Cr     -97.39298588      -1.69962103      -0.00000000 NiMoCrFe_S5_021_seed1_T900K_final       0.00000000        0        0
Ni     -89.79912841      -1.58616378      -0.00000000 NiMoCrFe_S5_021_seed1_T900K_final       0.00000000        0        0
Ni     -81.81187450      -1.43274832      -0.00000000 NiMoCrFe_S5_021_seed1_T900K_final       0.00000000        0        0
Ni    -102.21561002      -0.21287110      -0.00000000 NiMoCrFe_S5_021_seed1_T900K_final      -0.44265900        1        0
Ni     -94.32163108      -0.08003612      -0.00000000 NiMoCrFe_S5_021_seed1_T900K_final       0.00000000        0        0
Mo     -86.63282323       0.05078216      -0.00000000 NiMoCrFe_S5_021_seed1_T900K_final       0.00000000        0        0
Ni     -98.91977990      -2.50158004      -1.76000000 NiMoCrFe_S5_021_seed1_T900K_final       0.00000000        0        0
Ni     -91.30398335      -2.38723077      -1.76000000 NiMoCrFe_S5_021_seed1_T900K_final       0.00000000        0        0
Ni     -83.43368187      -2.25586343      -1.76000000 NiMoCrFe_S5_021_seed1_T900K_final       0.00000000        0        0
Ni     -95.87791515      -0.90001999      -1.76000000 NiMoCrFe_S5_021_seed1_T900K_final       0.00000000        0        0
Ni     -88.24141228      -0.79166289      -1.76000000 NiMoCrFe_S5_021_seed1_T900K_final       0.00000000        0        0
Ni     -80.16166751      -0.65533977      -1.76000000 NiMoCrFe_S5_021_seed1_T900K_final      -0.55642700        1        0
Ni     -98.16679388      -0.14039280      -1.76000000 NiMoCrFe_S5_021_seed1_T900K_final       0.00000000        0        0
Ni     -90.54874113      -0.03099931      -1.76000000 NiMoCrFe_S5_021_seed1_T900K_final       0.00000000        0        0
Mo     -82.60615532       0.12222820      -1.76000000 NiMoCrFe_S5_021_seed1_T900K_final       0.00000000        0        0
Ni     -95.12282527      -2.45089109      -0.00000000 NiMoCrFe_S5_021_seed1_T900K_final       0.00000000        0        0
Ni     -87.45637376      -2.32741150      -0.00000000 NiMoCrFe_S5_021_seed1_T900K_final       0.00000000        0        0
Ni     -79.58742315      -2.16607436      -0.00000000 NiMoCrFe_S5_021_seed1_T900K_final      -0.82800900        1        0
Ni     -99.72129806      -0.95985538      -0.00000000 NiMoCrFe_S5_021_seed1_T900K_final      -0.59556500        1        0
Ni     -92.05345437      -0.82610964      -0.00000000 NiMoCrFe_S5_021_seed1_T900K_final       0.00000000        0        0
Ni     -84.22396911      -0.70665845      -0.00000000 NiMoCrFe_S5_021_seed1_T900K_final       0.00000000        0        0
Ni     -96.63507090      -3.26369724      -1.76000000 NiMoCrFe_S5_021_seed1_T900K_final       0.00000000        0        0
Ni     -89.02018829      -3.15200182      -1.76000000 NiMoCrFe_S5_021_seed1_T900K_final       0.00000000        0        0
Ni     -80.98295537      -2.99194751      -1.76000000 NiMoCrFe_S5_021_seed1_T900K_final      -0.11703100        1        0
Ni    -101.29902085      -1.82094086      -1.76000000 NiMoCrFe_S5_021_seed1_T900K_final      -0.11857000        1        0
Ni     -93.56821636      -1.62855528      -1.76000000 NiMoCrFe_S5_021_seed1_T900K_final       0.00000000        0        0
Ni     -85.81095848      -1.50676702      -1.76000000 NiMoCrFe_S5_021_seed1_T900K_final       0.00000000        0        0
Mo     -77.18033908      -1.16241392      -1.76000000 NiMoCrFe_S5_021_seed1_T900K_final       0.00000000        0        0
Cr     -69.24660442      -0.96217032      -1.76000000 NiMoCrFe_S5_021_seed1_T900K_final       0.00000000        0        0
Fe     -61.45656682      -0.88153534      -1.76000000 NiMoCrFe_S5_021_seed1_T900K_final       0.00000000        0        0
Mo     -53.56509283      -0.81201148      -1.76000000 NiMoCrFe_S5_021_seed1_T900K_final       0.00000000        0        0
Mo     -45.77156970      -0.76704931      -1.76000000 NiMoCrFe_S5_021_seed1_T900K_final       0.00000000        0        0
Ni     -37.78387722      -0.80233099      -1.76000000 NiMoCrFe_S5_021_seed1_T900K_final       0.00000000        0        0
Ni     -29.83912377      -0.79056539      -1.76000000 NiMoCrFe_S5_021_seed1_T900K_final       0.00000000        0        0
Ni     -21.92314479      -0.81691207      -1.76000000 NiMoCrFe_S5_021_seed1_T900K_final       0.00000000        0        0
Ni     -14.20957316      -0.65984507      -1.76000000 NiMoCrFe_S5_021_seed1_T900K_final       0.00000000        0        0
Ni      -6.32399633      -0.56022125      -1.76000000 NiMoCrFe_S5_021_seed1_T900K_final       0.00000000        0        0
Ni     -73.79951256      -2.64326809      -1.76000000 NiMoCrFe_S5_021_seed1_T900K_final       0.00000000        0        0
Ni     -66.17781762      -2.49139523      -1.76000000 NiMoCrFe_S5_021_seed1_T900K_final       0.00000000        0        0
Ni     -58.42694266      -2.34000482      -1.76000000 NiMoCrFe_S5_021_seed1_T900K_final       0.00000000        0        0
Ni     -50.43516657      -2.36666129      -1.76000000 NiMoCrFe_S5_021_seed1_T900K_final       0.00000000        0        0
Ni     -42.58230207      -2.33648437      -1.76000000 NiMoCrFe_S5_021_seed1_T900K_final       0.00000000        0        0
Ni     -34.70483791      -2.31525558      -1.76000000 NiMoCrFe_S5_021_seed1_T900K_final       0.00000000        0        0
Ni     -26.76930900      -2.34461859      -1.76000000 NiMoCrFe_S5_021_seed1_T900K_final       0.00000000        0        0
Ni     -18.84774982      -2.33460486      -1.76000000 NiMoCrFe_S5_021_seed1_T900K_final       0.00000000        0        0
Ni     -11.13689072      -2.15782064      -1.76000000 NiMoCrFe_S5_021_seed1_T900K_final       0.00000000        0        0
Ni      -3.31633409      -2.03720121      -1.76000000 NiMoCrFe_S5_021_seed1_T900K_final       0.00000000        0        0
Ni     -78.65599859       0.12676758      -0.00000000 NiMoCrFe_S5_021_seed1_T900K_final      -0.74691400        1        0
Ni     -70.74992707      -0.22251459      -0.00000000 NiMoCrFe_S5_021_seed1_T900K_final       0.00000000        0        0
Fe     -62.95360307      -0.13596201      -0.00000000 NiMoCrFe_S5_021_seed1_T900K_final       0.00000000        0        0
Ni     -55.18819795      -0.00288815      -0.00000000 NiMoCrFe_S5_021_seed1_T900K_final       0.00000000        0        0
Ni     -47.37464996       0.06007458      -0.00000000 NiMoCrFe_S5_021_seed1_T900K_final       0.00000000        0        0
Mo     -39.34585453      -0.03547774      -0.00000000 NiMoCrFe_S5_021_seed1_T900K_final       0.00000000        0        0
Ni     -31.45037802       0.01407155      -0.00000000 NiMoCrFe_S5_021_seed1_T900K_final       0.00000000        0        0
Ni     -23.51512149      -0.02637632      -0.00000000 NiMoCrFe_S5_021_seed1_T900K_final       0.00000000        0        0
Cr     -15.75382199       0.08479753      -0.00000000 NiMoCrFe_S5_021_seed1_T900K_final       0.00000000        0        0
Mo      -7.97698355       0.24560623      -0.00000000 NiMoCrFe_S5_021_seed1_T900K_final       0.00000000        0        0
Ni     -75.28094558      -1.88173281      -0.00000000 NiMoCrFe_S5_021_seed1_T900K_final       0.00000000        0        0
Ni     -67.75948351      -1.70578876      -0.00000000 NiMoCrFe_S5_021_seed1_T900K_final       0.00000000        0        0
Ni     -59.94781003      -1.60155827      -0.00000000 NiMoCrFe_S5_021_seed1_T900K_final       0.00000000        0        0
Ni     -51.96232701      -1.61466753      -0.00000000 NiMoCrFe_S5_021_seed1_T900K_final       0.00000000        0        0
Ni     -44.14874568      -1.57987377      -0.00000000 NiMoCrFe_S5_021_seed1_T900K_final       0.00000000        0        0
Ni     -36.24460263      -1.55904685      -0.00000000 NiMoCrFe_S5_021_seed1_T900K_final       0.00000000        0        0
Ni     -28.30218340      -1.56723589      -0.00000000 NiMoCrFe_S5_021_seed1_T900K_final       0.00000000        0        0
Cr     -20.38384735      -1.57612834      -0.00000000 NiMoCrFe_S5_021_seed1_T900K_final       0.00000000        0        0
Cr     -12.67246251      -1.41518636      -0.00000000 NiMoCrFe_S5_021_seed1_T900K_final       0.00000000        0        0
Cr      -4.80500853      -1.28590770      -0.00000000 NiMoCrFe_S5_021_seed1_T900K_final       0.00000000        0        0
Ni     -72.31079128      -3.37837769      -0.00000000 NiMoCrFe_S5_021_seed1_T900K_final       0.00000000        0        0
Ni     -64.53022646      -3.29437228      -0.00000000 NiMoCrFe_S5_021_seed1_T900K_final       0.00000000        0        0
Mo     -56.81919031      -3.13506883      -0.00000000 NiMoCrFe_S5_021_seed1_T900K_final       0.00000000        0        0
Ni     -48.91535094      -3.11174542      -0.00000000 NiMoCrFe_S5_021_seed1_T900K_final       0.00000000        0        0
Ni     -40.95258183      -3.14354832      -0.00000000 NiMoCrFe_S5_021_seed1_T900K_final       0.00000000        0        0
Ni     -33.11721305      -3.10819418      -0.00000000 NiMoCrFe_S5_021_seed1_T900K_final       0.00000000        0        0
Ni     -25.18237755      -3.15200988      -0.00000000 NiMoCrFe_S5_021_seed1_T900K_final       0.00000000        0        0
Ni     -17.28024912      -3.09589732      -0.00000000 NiMoCrFe_S5_021_seed1_T900K_final       0.00000000        0        0
Ni      -9.58990725      -2.89341106      -0.00000000 NiMoCrFe_S5_021_seed1_T900K_final       0.00000000        0        0
Mo      -1.38459799      -2.74019774      -0.00000000 NiMoCrFe_S5_021_seed1_T900K_final       0.00000000        0        0
Cr     -74.59407460      -0.31373022      -1.76000000 NiMoCrFe_S5_021_seed1_T900K_final       0.00000000        0        0
Ni     -66.97203048      -0.11622326      -1.76000000 NiMoCrFe_S5_021_seed1_T900K_final       0.00000000        0        0
Fe     -59.20942411      -0.00207056      -1.76000000 NiMoCrFe_S5_021_seed1_T900K_final       0.00000000        0        0
Ni     -51.18575295      -0.01885578      -1.76000000 NiMoCrFe_S5_021_seed1_T900K_final       0.00000000        0        0
Ni     -43.36431760       0.00997705      -1.76000000 NiMoCrFe_S5_021_seed1_T900K_final       0.00000000        0        0
Ni     -35.49417008       0.03186934      -1.76000000 NiMoCrFe_S5_021_seed1_T900K_final       0.00000000        0        0
Cr     -27.53436531       0.01837387      -1.76000000 NiMoCrFe_S5_021_seed1_T900K_final       0.00000000        0        0
Ni     -19.60818506       0.01207599      -1.76000000 NiMoCrFe_S5_021_seed1_T900K_final       0.00000000        0        0
Ni     -11.89609371       0.17637461      -1.76000000 NiMoCrFe_S5_021_seed1_T900K_final       0.00000000        0        0
Ni      -4.01794149       0.32527415      -1.76000000 NiMoCrFe_S5_021_seed1_T900K_final       0.00000000        0        0
Ni     -71.52546015      -1.79945448      -1.76000000 NiMoCrFe_S5_021_seed1_T900K_final       0.00000000        0        0
Ni     -63.74531065      -1.73444166      -1.76000000 NiMoCrFe_S5_021_seed1_T900K_final       0.00000000        0        0
Ni     -55.99442670      -1.56718510      -1.76000000 NiMoCrFe_S5_021_seed1_T900K_final       0.00000000        0        0
Cr     -48.16136956      -1.52786226      -1.76000000 NiMoCrFe_S5_021_seed1_T900K_final       0.00000000        0        0
Ni     -40.13706621      -1.58285430      -1.76000000 NiMoCrFe_S5_021_seed1_T900K_final       0.00000000        0        0
Ni     -32.27989611      -1.54694417      -1.76000000 NiMoCrFe_S5_021_seed1_T900K_final       0.00000000        0        0
Mo     -24.33781113      -1.58950194      -1.76000000 NiMoCrFe_S5_021_seed1_T900K_final       0.00000000        0        0
Ni     -16.51776738      -1.50171763      -1.76000000 NiMoCrFe_S5_021_seed1_T900K_final       0.00000000        0        0
Ni      -8.78950555      -1.32657574      -1.76000000 NiMoCrFe_S5_021_seed1_T900K_final       0.00000000        0        0
Ni      -1.15396624      -1.17493946      -1.76000000 NiMoCrFe_S5_021_seed1_T900K_final      -0.00986900        1        0
Ni     -76.08142330      -3.50079517      -1.76000000 NiMoCrFe_S5_021_seed1_T900K_final      -0.28409900        1        0
Ni     -68.49948294      -3.30404217      -1.76000000 NiMoCrFe_S5_021_seed1_T900K_final       0.00000000        0        0
Ni     -60.69553163      -3.20225023      -1.76000000 NiMoCrFe_S5_021_seed1_T900K_final       0.00000000        0        0
Ni     -52.75131647      -3.17688879      -1.76000000 NiMoCrFe_S5_021_seed1_T900K_final       0.00000000        0        0
Ni     -44.93765631      -3.13692859      -1.76000000 NiMoCrFe_S5_021_seed1_T900K_final       0.00000000        0        0
Ni     -37.01266048      -3.15369702      -1.76000000 NiMoCrFe_S5_021_seed1_T900K_final       0.00000000        0        0
Ni     -29.06695135      -3.16185292      -1.76000000 NiMoCrFe_S5_021_seed1_T900K_final       0.00000000        0        0
Ni     -21.15128280      -3.16839107      -1.76000000 NiMoCrFe_S5_021_seed1_T900K_final       0.00000000        0        0
Ni     -13.43087830      -3.01161124      -1.76000000 NiMoCrFe_S5_021_seed1_T900K_final       0.00000000        0        0
Ni      -5.57379990      -2.89857170      -1.76000000 NiMoCrFe_S5_021_seed1_T900K_final       0.00000000        0        0
Ni     -73.03897891      -1.03575622      -0.00000000 NiMoCrFe_S5_021_seed1_T900K_final       0.00000000        0        0
Mo     -65.36288070      -0.92604749      -0.00000000 NiMoCrFe_S5_021_seed1_T900K_final       0.00000000        0        0
Ni     -57.62641872      -0.77331898      -0.00000000 NiMoCrFe_S5_021_seed1_T900K_final       0.00000000        0        0
Ni     -49.67394510      -0.77004090      -0.00000000 NiMoCrFe_S5_021_seed1_T900K_final       0.00000000        0        0
Ni     -41.79343861      -0.77776625      -0.00000000 NiMoCrFe_S5_021_seed1_T900K_final       0.00000000        0        0
Mo     -33.91882630      -0.72901539      -0.00000000 NiMoCrFe_S5_021_seed1_T900K_final       0.00000000        0        0
Ni     -25.99229889      -0.75569967      -0.00000000 NiMoCrFe_S5_021_seed1_T900K_final       0.00000000        0        0
Ni     -18.05328024      -0.73971828      -0.00000000 NiMoCrFe_S5_021_seed1_T900K_final       0.00000000        0        0
Ni     -10.38863368      -0.55923972      -0.00000000 NiMoCrFe_S5_021_seed1_T900K_final       0.00000000        0        0
Ni      -2.51710093      -0.40530481      -0.00000000 NiMoCrFe_S5_021_seed1_T900K_final      -0.51704000        1        0
Ni     -77.46147360      -2.72630527      -0.00000000 NiMoCrFe_S5_021_seed1_T900K_final      -0.17853200        1        0
Ni     -70.01501551      -2.56215967      -0.00000000 NiMoCrFe_S5_021_seed1_T900K_final       0.00000000        0        0
Fe     -62.19108866      -2.48913499      -0.00000000 NiMoCrFe_S5_021_seed1_T900K_final       0.00000000        0        0
Ni     -54.38357371      -2.37822494      -0.00000000 NiMoCrFe_S5_021_seed1_T900K_final       0.00000000        0        0
Ni     -46.58740227      -2.32601431      -0.00000000 NiMoCrFe_S5_021_seed1_T900K_final       0.00000000        0        0
Ni     -38.54991643      -2.38253510      -0.00000000 NiMoCrFe_S5_021_seed1_T900K_final       0.00000000        0        0
Mo     -30.64262574      -2.37169180      -0.00000000 NiMoCrFe_S5_021_seed1_T900K_final       0.00000000        0        0
Ni     -22.71021930      -2.40588593      -0.00000000 NiMoCrFe_S5_021_seed1_T900K_final       0.00000000        0        0
Ni     -14.98107278      -2.25526752      -0.00000000 NiMoCrFe_S5_021_seed1_T900K_final       0.00000000        0        0
Ni      -7.13159697      -2.11323087      -0.00000000 NiMoCrFe_S5_021_seed1_T900K_final       0.00000000        0        0
130
Lattice="0.0 0.0 -3.52 2e-16 -3.9354796403996297 1.7600000000000007 -102.32247065039037 0.0 -6.3e-15" Properties=species:S:1:pos:R:3:frame_label:S:1:Eseg:R:1:probed:I:1:trap:I:1 pbc="T T T"
Mo    -100.57889010      -3.36249638      -0.00000000 NiMoCrFe_S5_021_seed1_T900K_snap_1000       0.00000000        0        0
Ni     -92.77200938      -3.20648985      -0.00000000 NiMoCrFe_S5_021_seed1_T900K_snap_1000       0.00000000        0        0
Ni     -84.93930305      -3.01712493      -0.00000000 NiMoCrFe_S5_021_seed1_T900K_snap_1000       0.00000000        0        0
Cr     -97.39442334      -1.70807228      -0.00000000 NiMoCrFe_S5_021_seed1_T900K_snap_1000       0.00000000        0        0
Ni     -89.72673828      -1.57660960      -0.00000000 NiMoCrFe_S5_021_seed1_T900K_snap_1000       0.00000000        0        0
Ni     -81.87350112      -1.42792785      -0.00000000 NiMoCrFe_S5_021_seed1_T900K_snap_1000       0.00000000        0        0
Ni    -102.21942613      -0.22322138      -0.00000000 NiMoCrFe_S5_021_seed1_T900K_snap_1000      -0.64175500        1        0
Ni     -94.32607020      -0.08301707      -0.00000000 NiMoCrFe_S5_021_seed1_T900K_snap_1000       0.00000000        0        0
Mo     -86.56818516       0.06451425      -0.00000000 NiMoCrFe_S5_021_seed1_T900K_snap_1000       0.00000000        0        0
Ni     -98.92330156      -2.51011424      -1.76000000 NiMoCrFe_S5_021_seed1_T900K_snap_1000       0.00000000        0        0
Ni     -91.25257679      -2.39104665      -1.76000000 NiMoCrFe_S5_021_seed1_T900K_snap_1000       0.00000000        0        0
Cr     -83.39230877      -2.23282443      -1.76000000 NiMoCrFe_S5_021_seed1_T900K_snap_1000       0.00000000        0        0
Ni     -95.87835275      -0.90416165      -1.76000000 NiMoCrFe_S5_021_seed1_T900K_snap_1000       0.00000000        0        0
Ni     -88.18436562      -0.78225668      -1.76000000 NiMoCrFe_S5_021_seed1_T900K_snap_1000       0.00000000        0        0
Ni     -80.24016384      -0.67941378      -1.76000000 NiMoCrFe_S5_021_seed1_T900K_snap_1000       0.07734600        1        0
Ni     -98.16861617      -0.14833469      -1.76000000 NiMoCrFe_S5_021_seed1_T900K_snap_1000       0.00000000        0        0
Cr     -90.48414317      -0.01637537      -1.76000000 NiMoCrFe_S5_021_seed1_T900K_snap_1000       0.00000000        0        0
Fe     -82.60966279       0.14666126      -1.76000000 NiMoCrFe_S5_021_seed1_T900K_snap_1000       0.00000000        0        0
Ni     -95.11319314      -2.46115743      -0.00000000 NiMoCrFe_S5_021_seed1_T900K_snap_1000       0.00000000        0        0
Ni     -87.38442889      -2.31861247      -0.00000000 NiMoCrFe_S5_021_seed1_T900K_snap_1000       0.00000000        0        0
Cr     -79.67354948      -2.19686408      -0.00000000 NiMoCrFe_S5_021_seed1_T900K_snap_1000       0.00000000        0        0
Ni     -99.72379006      -0.96945445      -0.00000000 NiMoCrFe_S5_021_seed1_T900K_snap_1000       0.12088900        1        0
Ni     -92.00486074      -0.81780694      -0.00000000 NiMoCrFe_S5_021_seed1_T900K_snap_1000       0.00000000        0        0
Ni     -84.16847180      -0.66398201      -0.00000000 NiMoCrFe_S5_021_seed1_T900K_snap_1000       0.00000000        0        0
Ni     -96.63476348      -3.26769579      -1.76000000 NiMoCrFe_S5_021_seed1_T900K_snap_1000       0.00000000        0        0
Ni     -88.97084112      -3.14854397      -1.76000000 NiMoCrFe_S5_021_seed1_T900K_snap_1000       0.00000000        0        0
Ni     -81.06652935      -3.02349150      -1.76000000 NiMoCrFe_S5_021_seed1_T900K_snap_1000       0.10863000        1        0
Ni    -101.30932632      -1.82875792      -1.76000000 NiMoCrFe_S5_021_seed1_T900K_snap_1000      -0.38065600        1        0
Fe     -93.56278499      -1.64294775      -1.76000000 NiMoCrFe_S5_021_seed1_T900K_snap_1000       0.00000000        0        0
Ni     -85.73081934      -1.48522028      -1.76000000 NiMoCrFe_S5_021_seed1_T900K_snap_1000       0.00000000        0        0
Mo     -77.23510857      -1.15495669      -1.76000000 NiMoCrFe_S5_021_seed1_T900K_snap_1000       0.00000000        0        0
Ni     -69.24409785      -0.95588108      -1.76000000 NiMoCrFe_S5_021_seed1_T900K_snap_1000       0.00000000        0        0
Ni     -61.43294227      -0.86396950      -1.76000000 NiMoCrFe_S5_021_seed1_T900K_snap_1000       0.00000000        0        0
Ni     -53.61586118      -0.82049428      -1.76000000 NiMoCrFe_S5_021_seed1_T900K_snap_1000       0.00000000        0        0
Ni     -45.80390609      -0.73711474      -1.76000000 NiMoCrFe_S5_021_seed1_T900K_snap_1000       0.00000000        0        0
Cr     -37.82190171      -0.78925046      -1.76000000 NiMoCrFe_S5_021_seed1_T900K_snap_1000       0.00000000        0        0
Cr     -29.94221485      -0.76984136      -1.76000000 NiMoCrFe_S5_021_seed1_T900K_snap_1000       0.00000000        0        0
Ni     -21.86817221      -0.81683753      -1.76000000 NiMoCrFe_S5_021_seed1_T900K_snap_1000       0.00000000        0        0
Ni     -14.19882494      -0.65997657      -1.76000000 NiMoCrFe_S5_021_seed1_T900K_snap_1000       0.00000000        0        0
Ni      -6.34009029      -0.53822901      -1.76000000 NiMoCrFe_S5_021_seed1_T900K_snap_1000       0.00000000        0        0
Ni     -73.83497459      -2.65354146      -1.76000000 NiMoCrFe_S5_021_seed1_T900K_snap_1000       0.00000000        0        0
Ni     -66.00515686      -2.51795038      -1.76000000 NiMoCrFe_S5_021_seed1_T900K_snap_1000       0.00000000        0        0
Ni     -58.40072366      -2.37243028      -1.76000000 NiMoCrFe_S5_021_seed1_T900K_snap_1000       0.00000000        0        0
Ni     -50.51510121      -2.32904340      -1.76000000 NiMoCrFe_S5_021_seed1_T900K_snap_1000       0.00000000        0        0
Ni     -42.57081377      -2.35645595      -1.76000000 NiMoCrFe_S5_021_seed1_T900K_snap_1000       0.00000000        0        0
Ni     -34.75131835      -2.32139203      -1.76000000 NiMoCrFe_S5_021_seed1_T900K_snap_1000       0.00000000        0        0
Mo     -26.74957612      -2.36684171      -1.76000000 NiMoCrFe_S5_021_seed1_T900K_snap_1000       0.00000000        0        0
Fe     -18.76833394      -2.34219526      -1.76000000 NiMoCrFe_S5_021_seed1_T900K_snap_1000       0.00000000        0        0
Ni     -11.15675342      -2.15217384      -1.76000000 NiMoCrFe_S5_021_seed1_T900K_snap_1000       0.00000000        0        0
Ni      -3.31626814      -2.05563397      -1.76000000 NiMoCrFe_S5_021_seed1_T900K_snap_1000       0.00000000        0        0
Ni     -78.71725089       0.09932339      -0.00000000 NiMoCrFe_S5_021_seed1_T900K_snap_1000      -0.52104800        1        0
Ni     -70.83109765      -0.17696978      -0.00000000 NiMoCrFe_S5_021_seed1_T900K_snap_1000       0.00000000        0        0
Ni     -62.97108598      -0.09505735      -0.00000000 NiMoCrFe_S5_021_seed1_T900K_snap_1000       0.00000000        0        0
Mo     -55.22544705      -0.01749950      -0.00000000 NiMoCrFe_S5_021_seed1_T900K_snap_1000       0.00000000        0        0
Fe     -47.31558495       0.01421353      -0.00000000 NiMoCrFe_S5_021_seed1_T900K_snap_1000       0.00000000        0        0
Ni     -39.32705235      -0.03817210      -0.00000000 NiMoCrFe_S5_021_seed1_T900K_snap_1000       0.00000000        0        0
Ni     -31.48455417      -0.01391447      -0.00000000 NiMoCrFe_S5_021_seed1_T900K_snap_1000       0.00000000        0        0
Ni     -23.52428822      -0.02517399      -0.00000000 NiMoCrFe_S5_021_seed1_T900K_snap_1000       0.00000000        0        0
Fe     -15.71778969       0.08942306      -0.00000000 NiMoCrFe_S5_021_seed1_T900K_snap_1000       0.00000000        0        0
Ni      -7.93366917       0.22633074      -0.00000000 NiMoCrFe_S5_021_seed1_T900K_snap_1000       0.00000000        0        0
Ni     -75.36269045      -1.86717933      -0.00000000 NiMoCrFe_S5_021_seed1_T900K_snap_1000       0.00000000        0        0
Ni     -67.58985301      -1.74445899      -0.00000000 NiMoCrFe_S5_021_seed1_T900K_snap_1000       0.00000000        0        0
Cr     -59.91359037      -1.62402891      -0.00000000 NiMoCrFe_S5_021_seed1_T900K_snap_1000       0.00000000        0        0
Ni     -52.08572677      -1.56271801      -0.00000000 NiMoCrFe_S5_021_seed1_T900K_snap_1000       0.00000000        0        0
Mo     -44.18888864      -1.54440012      -0.00000000 NiMoCrFe_S5_021_seed1_T900K_snap_1000       0.00000000        0        0
Ni     -36.30483076      -1.54047471      -0.00000000 NiMoCrFe_S5_021_seed1_T900K_snap_1000       0.00000000        0        0
Ni     -28.39557196      -1.53684716      -0.00000000 NiMoCrFe_S5_021_seed1_T900K_snap_1000       0.00000000        0        0
Ni     -20.29741714      -1.59327187      -0.00000000 NiMoCrFe_S5_021_seed1_T900K_snap_1000       0.00000000        0        0
Ni     -12.67941424      -1.40755132      -0.00000000 NiMoCrFe_S5_021_seed1_T900K_snap_1000       0.00000000        0        0
Ni      -4.82347122      -1.28184346      -0.00000000 NiMoCrFe_S5_021_seed1_T900K_snap_1000       0.00000000        0        0
Cr     -72.34036200      -3.37660836      -0.00000000 NiMoCrFe_S5_021_seed1_T900K_snap_1000       0.00000000        0        0
Ni     -64.49083263      -3.27382356      -0.00000000 NiMoCrFe_S5_021_seed1_T900K_snap_1000       0.00000000        0        0
Ni     -56.84394135      -3.14439676      -0.00000000 NiMoCrFe_S5_021_seed1_T900K_snap_1000       0.00000000        0        0
Ni     -48.88134660      -3.12617289      -0.00000000 NiMoCrFe_S5_021_seed1_T900K_snap_1000       0.00000000        0        0
Mo     -40.95413825      -3.15932600      -0.00000000 NiMoCrFe_S5_021_seed1_T900K_snap_1000       0.00000000        0        0
Mo     -33.12434497      -3.12804736      -0.00000000 NiMoCrFe_S5_021_seed1_T900K_snap_1000       0.00000000        0        0
Ni     -25.12942184      -3.18387834      -0.00000000 NiMoCrFe_S5_021_seed1_T900K_snap_1000       0.00000000        0        0
Ni     -17.24622713      -3.09390499      -0.00000000 NiMoCrFe_S5_021_seed1_T900K_snap_1000       0.00000000        0        0
Ni      -9.58376162      -2.92515537      -0.00000000 NiMoCrFe_S5_021_seed1_T900K_snap_1000       0.00000000        0        0
Mo      -1.33201599      -2.72387011      -0.00000000 NiMoCrFe_S5_021_seed1_T900K_snap_1000       0.00000000        0        0
Ni     -74.63867688      -0.30710158      -1.76000000 NiMoCrFe_S5_021_seed1_T900K_snap_1000       0.00000000        0        0
Ni     -66.79885165      -0.18151462      -1.76000000 NiMoCrFe_S5_021_seed1_T900K_snap_1000       0.00000000        0        0
Ni     -59.15041436      -0.03475359      -1.76000000 NiMoCrFe_S5_021_seed1_T900K_snap_1000       0.00000000        0        0
Ni     -51.30871068       0.04527424      -1.76000000 NiMoCrFe_S5_021_seed1_T900K_snap_1000       0.00000000        0        0
Ni     -43.37833803       0.02065420      -1.76000000 NiMoCrFe_S5_021_seed1_T900K_snap_1000       0.00000000        0        0
Ni     -35.54473647       0.02536973      -1.76000000 NiMoCrFe_S5_021_seed1_T900K_snap_1000       0.00000000        0        0
Ni     -27.59602612       0.00232501      -1.76000000 NiMoCrFe_S5_021_seed1_T900K_snap_1000       0.00000000        0        0
Ni     -19.53218304      -0.00199606      -1.76000000 NiMoCrFe_S5_021_seed1_T900K_snap_1000       0.00000000        0        0
Ni     -11.91923095       0.18979662      -1.76000000 NiMoCrFe_S5_021_seed1_T900K_snap_1000       0.00000000        0        0
Cr      -4.06226543       0.31456859      -1.76000000 NiMoCrFe_S5_021_seed1_T900K_snap_1000       0.00000000        0        0
Ni     -71.57906960      -1.77666746      -1.76000000 NiMoCrFe_S5_021_seed1_T900K_snap_1000       0.00000000        0        0
Cr     -63.72795498      -1.67964614      -1.76000000 NiMoCrFe_S5_021_seed1_T900K_snap_1000       0.00000000        0        0
Ni     -56.05189979      -1.58615918      -1.76000000 NiMoCrFe_S5_021_seed1_T900K_snap_1000       0.00000000        0        0
Ni     -48.09452959      -1.57281773      -1.76000000 NiMoCrFe_S5_021_seed1_T900K_snap_1000       0.00000000        0        0
Ni     -40.12692774      -1.58608537      -1.76000000 NiMoCrFe_S5_021_seed1_T900K_snap_1000       0.00000000        0        0
Ni     -32.28623868      -1.55883035      -1.76000000 NiMoCrFe_S5_021_seed1_T900K_snap_1000       0.00000000        0        0
Ni     -24.31934388      -1.57726492      -1.76000000 NiMoCrFe_S5_021_seed1_T900K_snap_1000       0.00000000        0        0
Ni     -16.48479507      -1.50417685      -1.76000000 NiMoCrFe_S5_021_seed1_T900K_snap_1000       0.00000000        0        0
Mo      -8.76190630      -1.35033624      -1.76000000 NiMoCrFe_S5_021_seed1_T900K_snap_1000       0.00000000        0        0
Ni      -1.17271577      -1.15879492      -1.76000000 NiMoCrFe_S5_021_seed1_T900K_snap_1000      -0.44457900        1        0
Ni     -76.15415189      -3.50350978      -1.76000000 NiMoCrFe_S5_021_seed1_T900K_snap_1000      -0.78409100        1        0
Mo     -68.42477423      -3.31875524      -1.76000000 NiMoCrFe_S5_021_seed1_T900K_snap_1000       0.00000000        0        0
Ni     -60.66957264      -3.20504439      -1.76000000 NiMoCrFe_S5_021_seed1_T900K_snap_1000       0.00000000        0        0
Ni     -52.83853176      -3.15527615      -1.76000000 NiMoCrFe_S5_021_seed1_T900K_snap_1000       0.00000000        0        0
Ni     -45.00846693      -3.11411031      -1.76000000 NiMoCrFe_S5_021_seed1_T900K_snap_1000       0.00000000        0        0
Ni     -37.05928142      -3.13638475      -1.76000000 NiMoCrFe_S5_021_seed1_T900K_snap_1000       0.00000000        0        0
Ni     -29.18039850      -3.12822720      -1.76000000 NiMoCrFe_S5_021_seed1_T900K_snap_1000       0.00000000        0        0
Ni     -21.08228836      -3.19112837      -1.76000000 NiMoCrFe_S5_021_seed1_T900K_snap_1000       0.00000000        0        0
Ni     -13.44223810      -3.00422916      -1.76000000 NiMoCrFe_S5_021_seed1_T900K_snap_1000       0.00000000        0        0
Ni      -5.58389229      -2.89160283      -1.76000000 NiMoCrFe_S5_021_seed1_T900K_snap_1000       0.00000000        0        0
Ni     -73.09002810      -1.03893655      -0.00000000 NiMoCrFe_S5_021_seed1_T900K_snap_1000       0.00000000        0        0
Ni     -65.24004401      -0.94082246      -0.00000000 NiMoCrFe_S5_021_seed1_T900K_snap_1000       0.00000000        0        0
Ni     -57.63815675      -0.80111774      -0.00000000 NiMoCrFe_S5_021_seed1_T900K_snap_1000       0.00000000        0        0
Mo     -49.70705449      -0.75934104      -0.00000000 NiMoCrFe_S5_021_seed1_T900K_snap_1000       0.00000000        0        0
Ni     -41.76227483      -0.79344650      -0.00000000 NiMoCrFe_S5_021_seed1_T900K_snap_1000       0.00000000        0        0
Ni     -33.95314013      -0.76239738      -0.00000000 NiMoCrFe_S5_021_seed1_T900K_snap_1000       0.00000000        0        0
Ni     -25.92532110      -0.80079378      -0.00000000 NiMoCrFe_S5_021_seed1_T900K_snap_1000       0.00000000        0        0
Ni     -18.00344739      -0.74581995      -0.00000000 NiMoCrFe_S5_021_seed1_T900K_snap_1000       0.00000000        0        0
Ni     -10.37789124      -0.55557328      -0.00000000 NiMoCrFe_S5_021_seed1_T900K_snap_1000       0.00000000        0        0
Ni      -2.53968754      -0.39606463      -0.00000000 NiMoCrFe_S5_021_seed1_T900K_snap_1000      -0.49974400        1        0
Ni     -77.53832877      -2.71693565      -0.00000000 NiMoCrFe_S5_021_seed1_T900K_snap_1000      -0.02610900        1        0
Ni     -70.04491538      -2.51953459      -0.00000000 NiMoCrFe_S5_021_seed1_T900K_snap_1000       0.00000000        0        0
Ni     -62.20822119      -2.43537353      -0.00000000 NiMoCrFe_S5_021_seed1_T900K_snap_1000       0.00000000        0        0
Ni     -54.40869203      -2.38431002      -0.00000000 NiMoCrFe_S5_021_seed1_T900K_snap_1000       0.00000000        0        0
Ni     -46.57430869      -2.33280381      -0.00000000 NiMoCrFe_S5_021_seed1_T900K_snap_1000       0.00000000        0        0
Ni     -38.56823601      -2.36992727      -0.00000000 NiMoCrFe_S5_021_seed1_T900K_snap_1000       0.00000000        0        0
Ni     -30.70377615      -2.35050379      -0.00000000 NiMoCrFe_S5_021_seed1_T900K_snap_1000       0.00000000        0        0
Mo     -22.69956612      -2.39038246      -0.00000000 NiMoCrFe_S5_021_seed1_T900K_snap_1000       0.00000000        0        0
Ni     -14.96124423      -2.25180398      -0.00000000 NiMoCrFe_S5_021_seed1_T900K_snap_1000       0.00000000        0        0
Ni      -7.13587830      -2.14011860      -0.00000000 NiMoCrFe_S5_021_seed1_T900K_snap_1000       0.00000000        0        0
130
Lattice="0.0 0.0 -3.52 2e-16 -3.9354796403996297 1.7600000000000007 -102.32247065039037 0.0 -6.3e-15" Properties=species:S:1:pos:R:3:frame_label:S:1:Eseg:R:1:probed:I:1:trap:I:1 pbc="T T T"
Ni    -100.66278574      -2.85402997      -0.00000000 NiMoCrFe_S5_021_seed2_T900K_final      -0.09219100        1        0
Ni     -92.85147644      -3.05380017      -0.00000000 NiMoCrFe_S5_021_seed2_T900K_final       0.00000000        0        0
Ni     -85.22283604      -3.35302013      -0.00000000 NiMoCrFe_S5_021_seed2_T900K_final       0.00000000        0        0
Ni     -97.64027192      -1.41844955      -0.00000000 NiMoCrFe_S5_021_seed2_T900K_final       0.00000000        0        0
Ni     -89.79451598      -1.58627261      -0.00000000 NiMoCrFe_S5_021_seed2_T900K_final       0.00000000        0        0
Ni     -82.00813565      -1.74660206      -0.00000000 NiMoCrFe_S5_021_seed2_T900K_final       0.00000000        0        0
Ni    -102.24694507       0.34659606      -0.00000000 NiMoCrFe_S5_021_seed2_T900K_final      -0.68206700        1        0
Ni     -94.39999182       0.15228416      -0.00000000 NiMoCrFe_S5_021_seed2_T900K_final       0.00000000        0        0
Ni     -86.77627278      -0.13682885      -0.00000000 NiMoCrFe_S5_021_seed2_T900K_final       0.00000000        0        0
Ni     -99.15825727      -2.13048321      -1.76000000 NiMoCrFe_S5_021_seed2_T900K_final       0.00000000        0        0
Ni     -91.30450139      -2.33149100      -1.76000000 NiMoCrFe_S5_021_seed2_T900K_final       0.00000000        0        0
Ni     -83.61499091      -2.56929682      -1.76000000 NiMoCrFe_S5_021_seed2_T900K_final       0.00000000        0        0
Mo     -96.00533332      -0.63019891      -1.76000000 NiMoCrFe_S5_021_seed2_T900K_final       0.00000000        0        0
Cr     -88.28669634      -0.86546001      -1.76000000 NiMoCrFe_S5_021_seed2_T900K_final       0.00000000        0        0
Mo     -80.07654653      -1.04801304      -1.76000000 NiMoCrFe_S5_021_seed2_T900K_final       0.00000000        0        0
Ni     -98.40061916       0.19202561      -1.76000000 NiMoCrFe_S5_021_seed2_T900K_final       0.00000000        0        0
Ni     -90.54579689       0.02033459      -1.76000000 NiMoCrFe_S5_021_seed2_T900K_final       0.00000000        0        0
Mo     -82.75818992      -0.20992713      -1.76000000 NiMoCrFe_S5_021_seed2_T900K_final       0.00000000        0        0
Ni     -95.18974622      -2.21194799      -0.00000000 NiMoCrFe_S5_021_seed2_T900K_final       0.00000000        0        0
Ni     -87.53382851      -2.47748115      -0.00000000 NiMoCrFe_S5_021_seed2_T900K_final       0.00000000        0        0
Ni     -79.81280696      -2.60533369      -0.00000000 NiMoCrFe_S5_021_seed2_T900K_final       0.53878700        1        0
Cr     -99.92155559      -0.51830501      -0.00000000 NiMoCrFe_S5_021_seed2_T900K_final       0.00000000        0        0
Ni     -92.08710067      -0.72158758      -0.00000000 NiMoCrFe_S5_021_seed2_T900K_final       0.00000000        0        0
Ni     -84.43244216      -0.98493408      -0.00000000 NiMoCrFe_S5_021_seed2_T900K_final       0.00000000        0        0
Ni     -96.84341112      -2.98167931      -1.76000000 NiMoCrFe_S5_021_seed2_T900K_final       0.00000000        0        0
Ni     -89.02978311      -3.19466491      -1.76000000 NiMoCrFe_S5_021_seed2_T900K_final       0.00000000        0        0
Ni     -81.19256878      -3.38589046      -1.76000000 NiMoCrFe_S5_021_seed2_T900K_final       0.23565700        1        0
Ni    -101.42575338      -1.26015279      -1.76000000 NiMoCrFe_S5_021_seed2_T900K_final      -0.31966300        1        0
Cr     -93.61607920      -1.45905043      -1.76000000 NiMoCrFe_S5_021_seed2_T900K_final       0.00000000        0        0
Ni     -86.00311747      -1.74259204      -1.76000000 NiMoCrFe_S5_021_seed2_T900K_final       0.00000000        0        0
Ni     -77.11259780      -0.59721200      -1.76000000 NiMoCrFe_S5_021_seed2_T900K_final       0.45607600        1        0
Ni     -69.20853404      -0.67961415      -1.76000000 NiMoCrFe_S5_021_seed2_T900K_final       0.00000000        0        0
Ni     -61.22764268      -0.76886909      -1.76000000 NiMoCrFe_S5_021_seed2_T900K_final       0.00000000        0        0
Ni     -53.32684517      -0.83557289      -1.76000000 NiMoCrFe_S5_021_seed2_T900K_final       0.00000000        0        0
Cr     -45.53369464      -0.79247684      -1.76000000 NiMoCrFe_S5_021_seed2_T900K_final       0.00000000        0        0
Ni     -37.94071897      -0.72496558      -1.76000000 NiMoCrFe_S5_021_seed2_T900K_final       0.00000000        0        0
Ni     -30.06789396      -0.79826508      -1.76000000 NiMoCrFe_S5_021_seed2_T900K_final       0.00000000        0        0
Ni     -22.17367503      -0.83573737      -1.76000000 NiMoCrFe_S5_021_seed2_T900K_final       0.00000000        0        0
Ni     -14.27886494      -0.95291121      -1.76000000 NiMoCrFe_S5_021_seed2_T900K_final       0.00000000        0        0
Cr      -6.39566150      -1.03604005      -1.76000000 NiMoCrFe_S5_021_seed2_T900K_final       0.00000000        0        0
Mo     -73.88151126      -2.19869961      -1.76000000 NiMoCrFe_S5_021_seed2_T900K_final       0.00000000        0        0
Ni     -65.99923144      -2.30597830      -1.76000000 NiMoCrFe_S5_021_seed2_T900K_final       0.00000000        0        0
Mo     -57.96892921      -2.41033087      -1.76000000 NiMoCrFe_S5_021_seed2_T900K_final       0.00000000        0        0
Ni     -50.08965726      -2.44554066      -1.76000000 NiMoCrFe_S5_021_seed2_T900K_final       0.00000000        0        0
Ni     -42.51648145      -2.33267136      -1.76000000 NiMoCrFe_S5_021_seed2_T900K_final       0.00000000        0        0
Ni     -34.86384928      -2.28932335      -1.76000000 NiMoCrFe_S5_021_seed2_T900K_final       0.00000000        0        0
Ni     -26.94627666      -2.38576700      -1.76000000 NiMoCrFe_S5_021_seed2_T900K_final       0.00000000        0        0
Ni     -18.92233962      -2.48995845      -1.76000000 NiMoCrFe_S5_021_seed2_T900K_final       0.00000000        0        0
Ni     -11.00976490      -2.58086612      -1.76000000 NiMoCrFe_S5_021_seed2_T900K_final       0.00000000        0        0
Mo      -2.59820118      -2.74927164      -1.76000000 NiMoCrFe_S5_021_seed2_T900K_final       0.00000000        0        0
Ni     -78.62675302       0.20214660      -0.00000000 NiMoCrFe_S5_021_seed2_T900K_final       0.11553000        1        0
Ni     -70.71720569       0.11588397      -0.00000000 NiMoCrFe_S5_021_seed2_T900K_final       0.00000000        0        0
Mo     -62.86828466       0.04258010      -0.00000000 NiMoCrFe_S5_021_seed2_T900K_final       0.00000000        0        0
Cr     -54.89394925      -0.03081829      -0.00000000 NiMoCrFe_S5_021_seed2_T900K_final       0.00000000        0        0
Ni     -47.08778093      -0.02288229      -0.00000000 NiMoCrFe_S5_021_seed2_T900K_final       0.00000000        0        0
Fe     -39.46761723       0.05682757      -0.00000000 NiMoCrFe_S5_021_seed2_T900K_final       0.00000000        0        0
Ni     -31.69375444       0.02870986      -0.00000000 NiMoCrFe_S5_021_seed2_T900K_final       0.00000000        0        0
Ni     -23.71631860      -0.05912591      -0.00000000 NiMoCrFe_S5_021_seed2_T900K_final       0.00000000        0        0
Ni     -15.85024789      -0.13204125      -0.00000000 NiMoCrFe_S5_021_seed2_T900K_final       0.00000000        0        0
Ni      -7.91830892      -0.23588457      -0.00000000 NiMoCrFe_S5_021_seed2_T900K_final       0.00000000        0        0
Ni     -75.47395626      -1.33987071      -0.00000000 NiMoCrFe_S5_021_seed2_T900K_final       0.00000000        0        0
Ni     -67.65144668      -1.49433882      -0.00000000 NiMoCrFe_S5_021_seed2_T900K_final       0.00000000        0        0
Ni     -59.60466139      -1.60086724      -0.00000000 NiMoCrFe_S5_021_seed2_T900K_final       0.00000000        0        0
Ni     -51.67971742      -1.64578275      -0.00000000 NiMoCrFe_S5_021_seed2_T900K_final       0.00000000        0        0
Ni     -44.02880852      -1.56421039      -0.00000000 NiMoCrFe_S5_021_seed2_T900K_final       0.00000000        0        0
Cr     -36.38662063      -1.51525426      -0.00000000 NiMoCrFe_S5_021_seed2_T900K_final       0.00000000        0        0
Ni     -28.52478189      -1.58104611      -0.00000000 NiMoCrFe_S5_021_seed2_T900K_final       0.00000000        0        0
Mo     -20.55255237      -1.66070498      -0.00000000 NiMoCrFe_S5_021_seed2_T900K_final       0.00000000        0        0
Ni     -12.61008489      -1.77349712      -0.00000000 NiMoCrFe_S5_021_seed2_T900K_final       0.00000000        0        0
Ni      -4.91712191      -1.89817541      -0.00000000 NiMoCrFe_S5_021_seed2_T900K_final       0.00000000        0        0
Ni     -72.25865166      -3.03776470      -0.00000000 NiMoCrFe_S5_021_seed2_T900K_final       0.00000000        0        0
Ni     -64.43008662      -3.10203016      -0.00000000 NiMoCrFe_S5_021_seed2_T900K_final       0.00000000        0        0
Ni     -56.40346948      -3.19638207      -0.00000000 NiMoCrFe_S5_021_seed2_T900K_final       0.00000000        0        0
Fe     -48.59069589      -3.20349036      -0.00000000 NiMoCrFe_S5_021_seed2_T900K_final       0.00000000        0        0
Ni     -41.00827325      -3.10822973      -0.00000000 NiMoCrFe_S5_021_seed2_T900K_final       0.00000000        0        0
Mo     -33.32326584      -3.06150096      -0.00000000 NiMoCrFe_S5_021_seed2_T900K_final       0.00000000        0        0
Ni     -25.29747056      -3.19965739      -0.00000000 NiMoCrFe_S5_021_seed2_T900K_final       0.00000000        0        0
Mo     -17.37532584      -3.26810010      -0.00000000 NiMoCrFe_S5_021_seed2_T900K_final       0.00000000        0        0
Fe      -9.48059331      -3.37336257      -0.00000000 NiMoCrFe_S5_021_seed2_T900K_final       0.00000000        0        0
Ni      -0.63394456      -2.03882549      -0.00000000 NiMoCrFe_S5_021_seed2_T900K_final      -0.95452100        1        0
Ni     -74.72001480       0.18951429      -1.76000000 NiMoCrFe_S5_021_seed2_T900K_final       0.00000000        0        0
Mo     -66.82519796       0.06389055      -1.76000000 NiMoCrFe_S5_021_seed2_T900K_final       0.00000000        0        0
Ni     -58.78780346      -0.03957995      -1.76000000 NiMoCrFe_S5_021_seed2_T900K_final       0.00000000        0        0
Ni     -50.88005477      -0.09394240      -1.76000000 NiMoCrFe_S5_021_seed2_T900K_final       0.00000000        0        0
Ni     -43.27245539       0.02120063      -1.76000000 NiMoCrFe_S5_021_seed2_T900K_final       0.00000000        0        0
Ni     -35.62180261       0.07170644      -1.76000000 NiMoCrFe_S5_021_seed2_T900K_final       0.00000000        0        0
Ni     -27.74468935       0.00003319      -1.76000000 NiMoCrFe_S5_021_seed2_T900K_final       0.00000000        0        0
Ni     -19.72637352      -0.10060847      -1.76000000 NiMoCrFe_S5_021_seed2_T900K_final       0.00000000        0        0
Ni     -11.81038409      -0.22426250      -1.76000000 NiMoCrFe_S5_021_seed2_T900K_final       0.00000000        0        0
Ni      -4.04128063      -0.23905404      -1.76000000 NiMoCrFe_S5_021_seed2_T900K_final       0.00000000        0        0
Ni     -71.47403062      -1.46817844      -1.76000000 NiMoCrFe_S5_021_seed2_T900K_final       0.00000000        0        0
Ni     -63.66098650      -1.51779834      -1.76000000 NiMoCrFe_S5_021_seed2_T900K_final       0.00000000        0        0
Ni     -55.64289451      -1.61332899      -1.76000000 NiMoCrFe_S5_021_seed2_T900K_final       0.00000000        0        0
Ni     -47.83084361      -1.61379344      -1.76000000 NiMoCrFe_S5_021_seed2_T900K_final       0.00000000        0        0
Ni     -40.22965867      -1.52553757      -1.76000000 NiMoCrFe_S5_021_seed2_T900K_final       0.00000000        0        0
Ni     -32.52493668      -1.52676444      -1.76000000 NiMoCrFe_S5_021_seed2_T900K_final       0.00000000        0        0
Ni     -24.49460137      -1.64934144      -1.76000000 NiMoCrFe_S5_021_seed2_T900K_final       0.00000000        0        0
Ni     -16.62291421      -1.69974463      -1.76000000 NiMoCrFe_S5_021_seed2_T900K_final       0.00000000        0        0
Ni      -8.71262444      -1.79724769      -1.76000000 NiMoCrFe_S5_021_seed2_T900K_final       0.00000000        0        0
Ni      -1.43612955      -0.39476372      -1.76000000 NiMoCrFe_S5_021_seed2_T900K_final      -0.75277100        1        0
Ni     -76.29581998      -2.94420992      -1.76000000 NiMoCrFe_S5_021_seed2_T900K_final       0.36052400        1        0
Ni     -68.44396464      -3.02394377      -1.76000000 NiMoCrFe_S5_021_seed2_T900K_final       0.00000000        0        0
Ni     -60.41506986      -3.15173324      -1.76000000 NiMoCrFe_S5_021_seed2_T900K_final       0.00000000        0        0
Mo     -52.48972854      -3.20835651      -1.76000000 NiMoCrFe_S5_021_seed2_T900K_final       0.00000000        0        0
Ni     -44.77901755      -3.15600010      -1.76000000 NiMoCrFe_S5_021_seed2_T900K_final       0.00000000        0        0
Ni     -37.14992050      -3.07870226      -1.76000000 NiMoCrFe_S5_021_seed2_T900K_final       0.00000000        0        0
Cr     -29.28189167      -3.15989077      -1.76000000 NiMoCrFe_S5_021_seed2_T900K_final       0.00000000        0        0
Ni     -21.37730790      -3.21990259      -1.76000000 NiMoCrFe_S5_021_seed2_T900K_final       0.00000000        0        0
Ni     -13.43714035      -3.33228928      -1.76000000 NiMoCrFe_S5_021_seed2_T900K_final       0.00000000        0        0
Ni      -5.58639622      -3.41900407      -1.76000000 NiMoCrFe_S5_021_seed2_T900K_final       0.00000000        0        0
Ni     -73.04674624      -0.64133354      -0.00000000 NiMoCrFe_S5_021_seed2_T900K_final       0.00000000        0        0
Ni     -65.20688502      -0.75115949      -0.00000000 NiMoCrFe_S5_021_seed2_T900K_final       0.00000000        0        0
Ni     -57.17961240      -0.85454241      -0.00000000 NiMoCrFe_S5_021_seed2_T900K_final       0.00000000        0        0
Ni     -49.34718699      -0.85182308      -0.00000000 NiMoCrFe_S5_021_seed2_T900K_final       0.00000000        0        0
Ni     -41.76660046      -0.74052458      -0.00000000 NiMoCrFe_S5_021_seed2_T900K_final       0.00000000        0        0
Ni     -34.10136954      -0.71745896      -0.00000000 NiMoCrFe_S5_021_seed2_T900K_final       0.00000000        0        0
Mo     -26.11479910      -0.82541142      -0.00000000 NiMoCrFe_S5_021_seed2_T900K_final       0.00000000        0        0
Ni     -18.13583044      -0.91556852      -0.00000000 NiMoCrFe_S5_021_seed2_T900K_final       0.00000000        0        0
Fe     -10.23499872      -1.02091153      -0.00000000 NiMoCrFe_S5_021_seed2_T900K_final       0.00000000        0        0
Ni      -2.78178604      -1.18018550      -0.00000000 NiMoCrFe_S5_021_seed2_T900K_final      -0.21551300        1        0
Cr     -77.67280052      -2.11167290      -0.00000000 NiMoCrFe_S5_021_seed2_T900K_final       0.00000000        0        0
Cr     -69.96923700      -2.25063028      -0.00000000 NiMoCrFe_S5_021_seed2_T900K_final       0.00000000        0        0
Ni     -62.03877413      -2.32545913      -0.00000000 NiMoCrFe_S5_021_seed2_T900K_final       0.00000000        0        0
Ni     -54.10601420      -2.38249403      -0.00000000 NiMoCrFe_S5_021_seed2_T900K_final       0.00000000        0        0
Ni     -46.33135134      -2.38450296      -0.00000000 NiMoCrFe_S5_021_seed2_T900K_final       0.00000000        0        0
Ni     -38.70105169      -2.30455644      -0.00000000 NiMoCrFe_S5_021_seed2_T900K_final       0.00000000        0        0
Ni     -30.86954715      -2.34318436      -0.00000000 NiMoCrFe_S5_021_seed2_T900K_final       0.00000000        0        0
Ni     -22.95595682      -2.42189126      -0.00000000 NiMoCrFe_S5_021_seed2_T900K_final       0.00000000        0        0
Ni     -15.07831507      -2.48570613      -0.00000000 NiMoCrFe_S5_021_seed2_T900K_final       0.00000000        0        0
Fe      -7.19055380      -2.61027172      -0.00000000 NiMoCrFe_S5_021_seed2_T900K_final       0.00000000        0        0
130
Lattice="0.0 0.0 -3.52 2e-16 -3.9354796403996297 1.7600000000000007 -102.32247065039037 0.0 -6.3e-15" Properties=species:S:1:pos:R:3:frame_label:S:1:Eseg:R:1:probed:I:1:trap:I:1 pbc="T T T"
Ni    -100.71450849      -2.89823103      -0.00000000 NiMoCrFe_S5_021_seed2_T900K_snap_1000       1.42387900        1        0
Ni     -92.84097335      -3.04073681      -0.00000000 NiMoCrFe_S5_021_seed2_T900K_snap_1000       0.00000000        0        0
Ni     -85.19129390      -3.35620136      -0.00000000 NiMoCrFe_S5_021_seed2_T900K_snap_1000       0.00000000        0        0
Ni     -97.63062042      -1.43221653      -0.00000000 NiMoCrFe_S5_021_seed2_T900K_snap_1000       0.00000000        0        0
Ni     -89.78967627      -1.59468657      -0.00000000 NiMoCrFe_S5_021_seed2_T900K_snap_1000       0.00000000        0        0
Ni     -81.98121318      -1.74756448      -0.00000000 NiMoCrFe_S5_021_seed2_T900K_snap_1000       0.00000000        0        0
Cr    -102.25623783       0.32005216      -0.00000000 NiMoCrFe_S5_021_seed2_T900K_snap_1000       0.00000000        0        0
Ni     -94.38462413       0.16175317      -0.00000000 NiMoCrFe_S5_021_seed2_T900K_snap_1000       0.00000000        0        0
Ni     -86.74053466      -0.14721693      -0.00000000 NiMoCrFe_S5_021_seed2_T900K_snap_1000       0.00000000        0        0
Ni     -99.18303309      -2.16615139      -1.76000000 NiMoCrFe_S5_021_seed2_T900K_snap_1000       0.00000000        0        0
Ni     -91.31520753      -2.31481818      -1.76000000 NiMoCrFe_S5_021_seed2_T900K_snap_1000       0.00000000        0        0
Mo     -83.58572558      -2.57164335      -1.76000000 NiMoCrFe_S5_021_seed2_T900K_snap_1000       0.00000000        0        0
Mo     -96.01555683      -0.63054338      -1.76000000 NiMoCrFe_S5_021_seed2_T900K_snap_1000       0.00000000        0        0
Ni     -88.26933464      -0.86708438      -1.76000000 NiMoCrFe_S5_021_seed2_T900K_snap_1000       0.00000000        0        0
Mo     -80.05284284      -1.05376205      -1.76000000 NiMoCrFe_S5_021_seed2_T900K_snap_1000       0.00000000        0        0
Ni     -98.42802347       0.17020080      -1.76000000 NiMoCrFe_S5_021_seed2_T900K_snap_1000       0.00000000        0        0
Ni     -90.55578600       0.01410937      -1.76000000 NiMoCrFe_S5_021_seed2_T900K_snap_1000       0.00000000        0        0
Ni     -82.72729292      -0.21183596      -1.76000000 NiMoCrFe_S5_021_seed2_T900K_snap_1000       0.00000000        0        0
Ni     -95.17411997      -2.20858525      -0.00000000 NiMoCrFe_S5_021_seed2_T900K_snap_1000       0.00000000        0        0
Fe     -87.51131774      -2.47592168      -0.00000000 NiMoCrFe_S5_021_seed2_T900K_snap_1000       0.00000000        0        0
Ni     -79.78945066      -2.61093775      -0.00000000 NiMoCrFe_S5_021_seed2_T900K_snap_1000       1.58741000        1        0
Cr     -99.93928064      -0.56428609      -0.00000000 NiMoCrFe_S5_021_seed2_T900K_snap_1000       0.00000000        0        0
Ni     -92.07747936      -0.70883305      -0.00000000 NiMoCrFe_S5_021_seed2_T900K_snap_1000       0.00000000        0        0
Ni     -84.40525846      -0.98866774      -0.00000000 NiMoCrFe_S5_021_seed2_T900K_snap_1000       0.00000000        0        0
Ni     -96.83125126      -2.99511337      -1.76000000 NiMoCrFe_S5_021_seed2_T900K_snap_1000       0.00000000        0        0
Ni     -89.02629664      -3.19860586      -1.76000000 NiMoCrFe_S5_021_seed2_T900K_snap_1000       0.00000000        0        0
Ni     -81.16529772      -3.38944683      -1.76000000 NiMoCrFe_S5_021_seed2_T900K_snap_1000       0.98289400        1        0
Ni    -101.45710317      -1.28601521      -1.76000000 NiMoCrFe_S5_021_seed2_T900K_snap_1000       1.46371500        1        0
Fe     -93.58349289      -1.43806079      -1.76000000 NiMoCrFe_S5_021_seed2_T900K_snap_1000       0.00000000        0        0
Ni     -85.97944438      -1.74861184      -1.76000000 NiMoCrFe_S5_021_seed2_T900K_snap_1000       0.00000000        0        0
Ni     -77.09812342      -0.61886232      -1.76000000 NiMoCrFe_S5_021_seed2_T900K_snap_1000       1.53208200        1        0
Ni     -69.21392600      -0.66478181      -1.76000000 NiMoCrFe_S5_021_seed2_T900K_snap_1000       0.00000000        0        0
Ni     -61.13979166      -0.79500478      -1.76000000 NiMoCrFe_S5_021_seed2_T900K_snap_1000       0.00000000        0        0
Fe     -53.29299416      -0.82879646      -1.76000000 NiMoCrFe_S5_021_seed2_T900K_snap_1000       0.00000000        0        0
Ni     -45.59465429      -0.76786586      -1.76000000 NiMoCrFe_S5_021_seed2_T900K_snap_1000       0.00000000        0        0
Ni     -38.00250915      -0.76241985      -1.76000000 NiMoCrFe_S5_021_seed2_T900K_snap_1000       0.00000000        0        0
Ni     -30.19479117      -0.79662788      -1.76000000 NiMoCrFe_S5_021_seed2_T900K_snap_1000       0.00000000        0        0
Ni     -22.09134686      -0.86142229      -1.76000000 NiMoCrFe_S5_021_seed2_T900K_snap_1000       0.00000000        0        0
Ni     -14.21109424      -0.89647366      -1.76000000 NiMoCrFe_S5_021_seed2_T900K_snap_1000       0.00000000        0        0
Ni      -6.38427068      -1.04356445      -1.76000000 NiMoCrFe_S5_021_seed2_T900K_snap_1000       0.00000000        0        0
Mo     -73.87452786      -2.21559405      -1.76000000 NiMoCrFe_S5_021_seed2_T900K_snap_1000       0.00000000        0        0
Ni     -65.99242400      -2.29145733      -1.76000000 NiMoCrFe_S5_021_seed2_T900K_snap_1000       0.00000000        0        0
Ni     -57.90453647      -2.45775637      -1.76000000 NiMoCrFe_S5_021_seed2_T900K_snap_1000       0.00000000        0        0
Ni     -50.20077955      -2.37409407      -1.76000000 NiMoCrFe_S5_021_seed2_T900K_snap_1000       0.00000000        0        0
Ni     -42.56703334      -2.34542532      -1.76000000 NiMoCrFe_S5_021_seed2_T900K_snap_1000       0.00000000        0        0
Ni     -34.96781766      -2.30786668      -1.76000000 NiMoCrFe_S5_021_seed2_T900K_snap_1000       0.00000000        0        0
Ni     -26.94078261      -2.37801521      -1.76000000 NiMoCrFe_S5_021_seed2_T900K_snap_1000       0.00000000        0        0
Ni     -18.82727954      -2.49372065      -1.76000000 NiMoCrFe_S5_021_seed2_T900K_snap_1000       0.00000000        0        0
Ni     -10.96855467      -2.55102134      -1.76000000 NiMoCrFe_S5_021_seed2_T900K_snap_1000       0.00000000        0        0
Mo      -2.82915903      -2.66958645      -1.76000000 NiMoCrFe_S5_021_seed2_T900K_snap_1000       0.00000000        0        0
Ni     -78.60938503       0.18675811      -0.00000000 NiMoCrFe_S5_021_seed2_T900K_snap_1000       1.02219600        1        0
Cr     -70.71036479       0.10463245      -0.00000000 NiMoCrFe_S5_021_seed2_T900K_snap_1000       0.00000000        0        0
Ni     -62.73260500      -0.00879419      -0.00000000 NiMoCrFe_S5_021_seed2_T900K_snap_1000       0.00000000        0        0
Ni     -54.85342956      -0.05027901      -0.00000000 NiMoCrFe_S5_021_seed2_T900K_snap_1000       0.00000000        0        0
Ni     -47.15091997       0.00048620      -0.00000000 NiMoCrFe_S5_021_seed2_T900K_snap_1000       0.00000000        0        0
Ni     -39.52252504       0.01660028      -0.00000000 NiMoCrFe_S5_021_seed2_T900K_snap_1000       0.00000000        0        0
Mo     -31.80949836       0.03626349      -0.00000000 NiMoCrFe_S5_021_seed2_T900K_snap_1000       0.00000000        0        0
Mo     -23.73516802      -0.04260066      -0.00000000 NiMoCrFe_S5_021_seed2_T900K_snap_1000       0.00000000        0        0
Ni     -15.77263050      -0.08151611      -0.00000000 NiMoCrFe_S5_021_seed2_T900K_snap_1000       0.00000000        0        0
Ni      -7.90996353      -0.23423065      -0.00000000 NiMoCrFe_S5_021_seed2_T900K_snap_1000       0.00000000        0        0
Ni     -75.46023516      -1.35918160      -0.00000000 NiMoCrFe_S5_021_seed2_T900K_snap_1000       0.00000000        0        0
Ni     -67.63220781      -1.46986462      -0.00000000 NiMoCrFe_S5_021_seed2_T900K_snap_1000       0.00000000        0        0
Mo     -59.53457220      -1.62487462      -0.00000000 NiMoCrFe_S5_021_seed2_T900K_snap_1000       0.00000000        0        0
Ni     -51.73020749      -1.60166645      -0.00000000 NiMoCrFe_S5_021_seed2_T900K_snap_1000       0.00000000        0        0
Ni     -44.08119097      -1.55677943      -0.00000000 NiMoCrFe_S5_021_seed2_T900K_snap_1000       0.00000000        0        0
Ni     -36.48771163      -1.53934139      -0.00000000 NiMoCrFe_S5_021_seed2_T900K_snap_1000       0.00000000        0        0
Ni     -28.60026004      -1.58442213      -0.00000000 NiMoCrFe_S5_021_seed2_T900K_snap_1000       0.00000000        0        0
Mo     -20.44777881      -1.68107549      -0.00000000 NiMoCrFe_S5_021_seed2_T900K_snap_1000       0.00000000        0        0
Ni     -12.54986155      -1.72319084      -0.00000000 NiMoCrFe_S5_021_seed2_T900K_snap_1000       0.00000000        0        0
Ni      -4.88618722      -1.88046568      -0.00000000 NiMoCrFe_S5_021_seed2_T900K_snap_1000       0.00000000        0        0
Ni     -72.24199127      -3.06214266      -0.00000000 NiMoCrFe_S5_021_seed2_T900K_snap_1000       0.00000000        0        0
Ni     -64.37763631      -3.13096158      -0.00000000 NiMoCrFe_S5_021_seed2_T900K_snap_1000       0.00000000        0        0
Cr     -56.36898949      -3.21964844      -0.00000000 NiMoCrFe_S5_021_seed2_T900K_snap_1000       0.00000000        0        0
Ni     -48.67512622      -3.15109769      -0.00000000 NiMoCrFe_S5_021_seed2_T900K_snap_1000       0.00000000        0        0
Ni     -41.05260826      -3.13410140      -0.00000000 NiMoCrFe_S5_021_seed2_T900K_snap_1000       0.00000000        0        0
Ni     -33.42593984      -3.07593442      -0.00000000 NiMoCrFe_S5_021_seed2_T900K_snap_1000       0.00000000        0        0
Ni     -25.34747294      -3.15766159      -0.00000000 NiMoCrFe_S5_021_seed2_T900K_snap_1000       0.00000000        0        0
Ni     -17.29230731      -3.25177303      -0.00000000 NiMoCrFe_S5_021_seed2_T900K_snap_1000       0.00000000        0        0
Ni      -9.43722097      -3.36157032      -0.00000000 NiMoCrFe_S5_021_seed2_T900K_snap_1000       0.00000000        0        0
Ni      -0.65189588      -2.04755848      -0.00000000 NiMoCrFe_S5_021_seed2_T900K_snap_1000       0.91255500        1        0
Ni     -74.70315222       0.16966713      -1.76000000 NiMoCrFe_S5_021_seed2_T900K_snap_1000       0.00000000        0        0
Mo     -66.81650145       0.08966366      -1.76000000 NiMoCrFe_S5_021_seed2_T900K_snap_1000       0.00000000        0        0
Ni     -58.69482756      -0.06014241      -1.76000000 NiMoCrFe_S5_021_seed2_T900K_snap_1000       0.00000000        0        0
Ni     -50.95639211      -0.02738258      -1.76000000 NiMoCrFe_S5_021_seed2_T900K_snap_1000       0.00000000        0        0
Cr     -43.31472764       0.01492718      -1.76000000 NiMoCrFe_S5_021_seed2_T900K_snap_1000       0.00000000        0        0
Ni     -35.72468633       0.04389489      -1.76000000 NiMoCrFe_S5_021_seed2_T900K_snap_1000       0.00000000        0        0
Mo     -27.77410443      -0.01453294      -1.76000000 NiMoCrFe_S5_021_seed2_T900K_snap_1000       0.00000000        0        0
Ni     -19.63099738      -0.11421216      -1.76000000 NiMoCrFe_S5_021_seed2_T900K_snap_1000       0.00000000        0        0
Ni     -11.74828676      -0.19687951      -1.76000000 NiMoCrFe_S5_021_seed2_T900K_snap_1000       0.00000000        0        0
Ni      -4.05332076      -0.24695139      -1.76000000 NiMoCrFe_S5_021_seed2_T900K_snap_1000       0.00000000        0        0
Ni     -71.47760657      -1.47646453      -1.76000000 NiMoCrFe_S5_021_seed2_T900K_snap_1000       0.00000000        0        0
Mo     -63.54913901      -1.57143840      -1.76000000 NiMoCrFe_S5_021_seed2_T900K_snap_1000       0.00000000        0        0
Ni     -55.61374251      -1.64010075      -1.76000000 NiMoCrFe_S5_021_seed2_T900K_snap_1000       0.00000000        0        0
Ni     -47.91501646      -1.56358019      -1.76000000 NiMoCrFe_S5_021_seed2_T900K_snap_1000       0.00000000        0        0
Ni     -40.27960542      -1.55840344      -1.76000000 NiMoCrFe_S5_021_seed2_T900K_snap_1000       0.00000000        0        0
Ni     -32.63828721      -1.52714560      -1.76000000 NiMoCrFe_S5_021_seed2_T900K_snap_1000       0.00000000        0        0
Ni     -24.55326956      -1.60684799      -1.76000000 NiMoCrFe_S5_021_seed2_T900K_snap_1000       0.00000000        0        0
Cr     -16.53962409      -1.66489032      -1.76000000 NiMoCrFe_S5_021_seed2_T900K_snap_1000       0.00000000        0        0
Ni      -8.67131534      -1.79758986      -1.76000000 NiMoCrFe_S5_021_seed2_T900K_snap_1000       0.00000000        0        0
Ni      -1.41889290      -0.37290409      -1.76000000 NiMoCrFe_S5_021_seed2_T900K_snap_1000       0.61593000        1        0
Ni     -76.28093342      -2.96710825      -1.76000000 NiMoCrFe_S5_021_seed2_T900K_snap_1000       1.43939600        1        0
Ni     -68.43397177      -3.01964451      -1.76000000 NiMoCrFe_S5_021_seed2_T900K_snap_1000       0.00000000        0        0
Ni     -60.35269706      -3.18841339      -1.76000000 NiMoCrFe_S5_021_seed2_T900K_snap_1000       0.00000000        0        0
Fe     -52.51829127      -3.18537945      -1.76000000 NiMoCrFe_S5_021_seed2_T900K_snap_1000       0.00000000        0        0
Fe     -44.84191543      -3.13960783      -1.76000000 NiMoCrFe_S5_021_seed2_T900K_snap_1000       0.00000000        0        0
Ni     -37.24264952      -3.11829598      -1.76000000 NiMoCrFe_S5_021_seed2_T900K_snap_1000       0.00000000        0        0
Ni     -29.38822041      -3.13093841      -1.76000000 NiMoCrFe_S5_021_seed2_T900K_snap_1000       0.00000000        0        0
Ni     -21.27868237      -3.24319333      -1.76000000 NiMoCrFe_S5_021_seed2_T900K_snap_1000       0.00000000        0        0
Mo     -13.37528450      -3.27594121      -1.76000000 NiMoCrFe_S5_021_seed2_T900K_snap_1000       0.00000000        0        0
Ni      -5.57024967      -3.40629590      -1.76000000 NiMoCrFe_S5_021_seed2_T900K_snap_1000       0.00000000        0        0
Ni     -73.02630932      -0.65695768      -0.00000000 NiMoCrFe_S5_021_seed2_T900K_snap_1000       0.00000000        0        0
Ni     -65.18438712      -0.74366774      -0.00000000 NiMoCrFe_S5_021_seed2_T900K_snap_1000       0.00000000        0        0
Ni     -57.13320283      -0.86450407      -0.00000000 NiMoCrFe_S5_021_seed2_T900K_snap_1000       0.00000000        0        0
Cr     -49.44033246      -0.79636079      -0.00000000 NiMoCrFe_S5_021_seed2_T900K_snap_1000       0.00000000        0        0
Ni     -41.81575534      -0.76094061      -0.00000000 NiMoCrFe_S5_021_seed2_T900K_snap_1000       0.00000000        0        0
Ni     -34.20770262      -0.72823485      -0.00000000 NiMoCrFe_S5_021_seed2_T900K_snap_1000       0.00000000        0        0
Ni     -26.15130638      -0.83003258      -0.00000000 NiMoCrFe_S5_021_seed2_T900K_snap_1000       0.00000000        0        0
Ni     -18.04591266      -0.90664836      -0.00000000 NiMoCrFe_S5_021_seed2_T900K_snap_1000       0.00000000        0        0
Cr     -10.21649001      -0.99214564      -0.00000000 NiMoCrFe_S5_021_seed2_T900K_snap_1000       0.00000000        0        0
Ni      -2.74373241      -1.09427823      -0.00000000 NiMoCrFe_S5_021_seed2_T900K_snap_1000       0.67207700        1        0
Cr     -77.65173176      -2.13224087      -0.00000000 NiMoCrFe_S5_021_seed2_T900K_snap_1000       0.00000000        0        0
Ni     -69.96419654      -2.25231130      -0.00000000 NiMoCrFe_S5_021_seed2_T900K_snap_1000       0.00000000        0        0
Ni     -61.94026732      -2.39867290      -0.00000000 NiMoCrFe_S5_021_seed2_T900K_snap_1000       0.00000000        0        0
Ni     -54.08292862      -2.41115621      -0.00000000 NiMoCrFe_S5_021_seed2_T900K_snap_1000       0.00000000        0        0
Ni     -46.37336835      -2.35171520      -0.00000000 NiMoCrFe_S5_021_seed2_T900K_snap_1000       0.00000000        0        0
Ni     -38.76335224      -2.34204339      -0.00000000 NiMoCrFe_S5_021_seed2_T900K_snap_1000       0.00000000        0        0
Ni     -30.98602311      -2.33820122      -0.00000000 NiMoCrFe_S5_021_seed2_T900K_snap_1000       0.00000000        0        0
Ni     -22.90141149      -2.41420390      -0.00000000 NiMoCrFe_S5_021_seed2_T900K_snap_1000       0.00000000        0        0
Ni     -15.01046841      -2.42850809      -0.00000000 NiMoCrFe_S5_021_seed2_T900K_snap_1000       0.00000000        0        0
Cr      -7.13999194      -2.61997498      -0.00000000 NiMoCrFe_S5_021_seed2_T900K_snap_1000       0.00000000        0        0
130
Lattice="0.0 0.0 -3.52 2e-16 -3.9354796403996297 1.7600000000000007 -102.32247065039037 0.0 -6.3e-15" Properties=species:S:1:pos:R:3:frame_label:S:1:Eseg:R:1:probed:I:1:trap:I:1 pbc="T T T"
Ni    -100.78005856      -3.06016089      -0.00000000 NiMoCrFe_S5_021_seed3_T900K_final       0.01690500        1        0
Ni     -93.01707573      -3.06913760      -0.00000000 NiMoCrFe_S5_021_seed3_T900K_final       0.00000000        0        0
Ni     -84.94649420      -2.87162246      -0.00000000 NiMoCrFe_S5_021_seed3_T900K_final       0.00000000        0        0
Fe     -97.62147758      -1.48039547      -0.00000000 NiMoCrFe_S5_021_seed3_T900K_final       0.00000000        0        0
Ni     -89.80276326      -1.44703272      -0.00000000 NiMoCrFe_S5_021_seed3_T900K_final       0.00000000        0        0
Fe     -81.79373632      -1.18607630      -0.00000000 NiMoCrFe_S5_021_seed3_T900K_final       0.00000000        0        0
Mo    -102.44029122      -0.04644815      -0.00000000 NiMoCrFe_S5_021_seed3_T900K_final       0.00000000        0        0
Ni     -94.54752769       0.07979918      -0.00000000 NiMoCrFe_S5_021_seed3_T900K_final       0.00000000        0        0
Ni     -86.53388475       0.24636216      -0.00000000 NiMoCrFe_S5_021_seed3_T900K_final       0.00000000        0        0
Ni     -99.11734312      -2.30162334      -1.76000000 NiMoCrFe_S5_021_seed3_T900K_final       0.00000000        0        0
Ni     -91.44236425      -2.26356701      -1.76000000 NiMoCrFe_S5_021_seed3_T900K_final       0.00000000        0        0
Ni     -83.39469283      -2.06171736      -1.76000000 NiMoCrFe_S5_021_seed3_T900K_final       0.00000000        0        0
Ni     -96.05516531      -0.69598870      -1.76000000 NiMoCrFe_S5_021_seed3_T900K_final       0.00000000        0        0
Ni     -88.17609801      -0.59564905      -1.76000000 NiMoCrFe_S5_021_seed3_T900K_final       0.00000000        0        0
Fe     -80.12891035      -0.32619684      -1.76000000 NiMoCrFe_S5_021_seed3_T900K_final       0.00000000        0        0
Ni     -98.39639676       0.08376390      -1.76000000 NiMoCrFe_S5_021_seed3_T900K_final       0.00000000        0        0
Mo     -90.62860936       0.11009910      -1.76000000 NiMoCrFe_S5_021_seed3_T900K_final       0.00000000        0        0
Ni     -82.58653645       0.34651373      -1.76000000 NiMoCrFe_S5_021_seed3_T900K_final       0.00000000        0        0
Ni     -95.31447591      -2.26799179      -0.00000000 NiMoCrFe_S5_021_seed3_T900K_final       0.00000000        0        0
Ni     -87.34388402      -2.13800003      -0.00000000 NiMoCrFe_S5_021_seed3_T900K_final       0.00000000        0        0
Ni     -79.42468928      -1.86219789      -0.00000000 NiMoCrFe_S5_021_seed3_T900K_final      -0.32385300        1        0
Cr     -99.92658992      -0.67480491      -0.00000000 NiMoCrFe_S5_021_seed3_T900K_final       0.00000000        0        0
Ni     -92.23894860      -0.71655387      -0.00000000 NiMoCrFe_S5_021_seed3_T900K_final       0.00000000        0        0
Ni     -84.18219619      -0.49261539      -0.00000000 NiMoCrFe_S5_021_seed3_T900K_final       0.00000000        0        0
Ni     -96.84589569      -3.05246584      -1.76000000 NiMoCrFe_S5_021_seed3_T900K_final       0.00000000        0        0
Ni     -88.98856101      -2.98660526      -1.76000000 NiMoCrFe_S5_021_seed3_T900K_final       0.00000000        0        0
Ni     -80.95179055      -2.73495982      -1.76000000 NiMoCrFe_S5_021_seed3_T900K_final       0.26163100        1        0
Ni    -101.30926475      -1.51255093      -1.76000000 NiMoCrFe_S5_021_seed3_T900K_final      -0.32969200        1        0
Cr     -93.78278631      -1.49657412      -1.76000000 NiMoCrFe_S5_021_seed3_T900K_final       0.00000000        0        0
Mo     -85.72899221      -1.29701604      -1.76000000 NiMoCrFe_S5_021_seed3_T900K_final       0.00000000        0        0
Ni     -77.69328685      -1.01673515      -1.76000000 NiMoCrFe_S5_021_seed3_T900K_final       0.34832300        1        0
Fe     -69.05084626      -1.02548157      -1.76000000 NiMoCrFe_S5_021_seed3_T900K_final       0.00000000        0        0
Ni     -61.30628570      -0.90614296      -1.76000000 NiMoCrFe_S5_021_seed3_T900K_final       0.00000000        0        0
Ni     -53.41618306      -0.84641613      -1.76000000 NiMoCrFe_S5_021_seed3_T900K_final       0.00000000        0        0
Ni     -45.50908478      -0.76487443      -1.76000000 NiMoCrFe_S5_021_seed3_T900K_final       0.00000000        0        0
Ni     -37.71023023      -0.79067977      -1.76000000 NiMoCrFe_S5_021_seed3_T900K_final       0.00000000        0        0
Cr     -30.10175544      -0.74931982      -1.76000000 NiMoCrFe_S5_021_seed3_T900K_final       0.00000000        0        0
Ni     -22.25697967      -0.76457581      -1.76000000 NiMoCrFe_S5_021_seed3_T900K_final       0.00000000        0        0
Ni     -14.35813141      -0.75365150      -1.76000000 NiMoCrFe_S5_021_seed3_T900K_final       0.00000000        0        0
Ni      -6.43954465      -0.76997950      -1.76000000 NiMoCrFe_S5_021_seed3_T900K_final       0.00000000        0        0
Mo     -73.61522699      -2.85144562      -1.76000000 NiMoCrFe_S5_021_seed3_T900K_final       0.00000000        0        0
Ni     -66.06505853      -2.48546033      -1.76000000 NiMoCrFe_S5_021_seed3_T900K_final       0.00000000        0        0
Ni     -58.28473785      -2.38025287      -1.76000000 NiMoCrFe_S5_021_seed3_T900K_final       0.00000000        0        0
Ni     -50.23461914      -2.40355737      -1.76000000 NiMoCrFe_S5_021_seed3_T900K_final       0.00000000        0        0
Ni     -42.32672497      -2.38357915      -1.76000000 NiMoCrFe_S5_021_seed3_T900K_final       0.00000000        0        0
Ni     -34.66106274      -2.35917604      -1.76000000 NiMoCrFe_S5_021_seed3_T900K_final       0.00000000        0        0
Ni     -26.86236810      -2.36327790      -1.76000000 NiMoCrFe_S5_021_seed3_T900K_final       0.00000000        0        0
Ni     -19.13153748      -2.31528730      -1.76000000 NiMoCrFe_S5_021_seed3_T900K_final       0.00000000        0        0
Ni     -11.16460994      -2.35686187      -1.76000000 NiMoCrFe_S5_021_seed3_T900K_final       0.00000000        0        0
Ni      -3.43470294      -2.35144243      -1.76000000 NiMoCrFe_S5_021_seed3_T900K_final       0.00000000        0        0
Ni     -78.59508411       0.48936948      -0.00000000 NiMoCrFe_S5_021_seed3_T900K_final      -0.80643700        1        0
Ni     -70.57098758      -0.29971699      -0.00000000 NiMoCrFe_S5_021_seed3_T900K_final       0.00000000        0        0
Ni     -62.84966376      -0.11975702      -0.00000000 NiMoCrFe_S5_021_seed3_T900K_final       0.00000000        0        0
Ni     -55.04332922      -0.03671450      -0.00000000 NiMoCrFe_S5_021_seed3_T900K_final       0.00000000        0        0
Ni     -47.02798588      -0.03807678      -0.00000000 NiMoCrFe_S5_021_seed3_T900K_final       0.00000000        0        0
Ni     -39.22560726      -0.01416898      -0.00000000 NiMoCrFe_S5_021_seed3_T900K_final       0.00000000        0        0
Ni     -31.64136157       0.03362615      -0.00000000 NiMoCrFe_S5_021_seed3_T900K_final       0.00000000        0        0
Fe     -23.77452769       0.00505368      -0.00000000 NiMoCrFe_S5_021_seed3_T900K_final       0.00000000        0        0
Ni     -15.88359147       0.01209390      -0.00000000 NiMoCrFe_S5_021_seed3_T900K_final       0.00000000        0        0
Ni      -7.99304123      -0.00605540      -0.00000000 NiMoCrFe_S5_021_seed3_T900K_final       0.00000000        0        0
Ni     -75.02828096      -2.09197720      -0.00000000 NiMoCrFe_S5_021_seed3_T900K_final       0.00000000        0        0
Cr     -67.55835683      -1.74972913      -0.00000000 NiMoCrFe_S5_021_seed3_T900K_final       0.00000000        0        0
Cr     -59.80193448      -1.64526976      -0.00000000 NiMoCrFe_S5_021_seed3_T900K_final       0.00000000        0        0
Ni     -51.81866817      -1.64117895      -0.00000000 NiMoCrFe_S5_021_seed3_T900K_final       0.00000000        0        0
Mo     -43.96070353      -1.57932205      -0.00000000 NiMoCrFe_S5_021_seed3_T900K_final       0.00000000        0        0
Ni     -36.19043732      -1.57011297      -0.00000000 NiMoCrFe_S5_021_seed3_T900K_final       0.00000000        0        0
Ni     -28.52258468      -1.55306347      -0.00000000 NiMoCrFe_S5_021_seed3_T900K_final       0.00000000        0        0
Ni     -20.71140475      -1.52482406      -0.00000000 NiMoCrFe_S5_021_seed3_T900K_final       0.00000000        0        0
Mo     -12.81605507      -1.51222134      -0.00000000 NiMoCrFe_S5_021_seed3_T900K_final       0.00000000        0        0
Ni      -4.93520414      -1.56299584      -0.00000000 NiMoCrFe_S5_021_seed3_T900K_final       0.00000000        0        0
Ni     -72.09026452      -3.52098341      -0.00000000 NiMoCrFe_S5_021_seed3_T900K_final       0.00000000        0        0
Ni     -64.49020369      -3.26637525      -0.00000000 NiMoCrFe_S5_021_seed3_T900K_final       0.00000000        0        0
Mo     -56.67370567      -3.16435935      -0.00000000 NiMoCrFe_S5_021_seed3_T900K_final       0.00000000        0        0
Mo     -48.58985698      -3.19946333      -0.00000000 NiMoCrFe_S5_021_seed3_T900K_final       0.00000000        0        0
Cr     -40.73632135      -3.17486333      -0.00000000 NiMoCrFe_S5_021_seed3_T900K_final       0.00000000        0        0
Cr     -33.15940430      -3.13428828      -0.00000000 NiMoCrFe_S5_021_seed3_T900K_final       0.00000000        0        0
Ni     -25.29500539      -3.16366325      -0.00000000 NiMoCrFe_S5_021_seed3_T900K_final       0.00000000        0        0
Ni     -17.47796795      -3.12202856      -0.00000000 NiMoCrFe_S5_021_seed3_T900K_final       0.00000000        0        0
Ni      -9.54256428      -3.18444035      -0.00000000 NiMoCrFe_S5_021_seed3_T900K_final       0.00000000        0        0
Ni      -1.77505048      -3.09932969      -0.00000000 NiMoCrFe_S5_021_seed3_T900K_final      -0.52954700        1        0
Ni     -74.40255022      -0.51084812      -1.76000000 NiMoCrFe_S5_021_seed3_T900K_final       0.00000000        0        0
Ni     -66.80253245      -0.14628139      -1.76000000 NiMoCrFe_S5_021_seed3_T900K_final       0.00000000        0        0
Ni     -59.06191029      -0.04285174      -1.76000000 NiMoCrFe_S5_021_seed3_T900K_final       0.00000000        0        0
Ni     -51.01732537      -0.02930699      -1.76000000 NiMoCrFe_S5_021_seed3_T900K_final       0.00000000        0        0
Ni     -43.11013509      -0.00909483      -1.76000000 NiMoCrFe_S5_021_seed3_T900K_final       0.00000000        0        0
Ni     -35.41987611       0.00927661      -1.76000000 NiMoCrFe_S5_021_seed3_T900K_final       0.00000000        0        0
Mo     -27.69743163       0.00997147      -1.76000000 NiMoCrFe_S5_021_seed3_T900K_final       0.00000000        0        0
Ni     -19.92692668       0.06063230      -1.76000000 NiMoCrFe_S5_021_seed3_T900K_final       0.00000000        0        0
Ni     -12.01853351       0.02654161      -1.76000000 NiMoCrFe_S5_021_seed3_T900K_final       0.00000000        0        0
Cr      -4.11927075       0.02803955      -1.76000000 NiMoCrFe_S5_021_seed3_T900K_final       0.00000000        0        0
Ni     -71.33190745      -1.91253428      -1.76000000 NiMoCrFe_S5_021_seed3_T900K_final       0.00000000        0        0
Mo     -63.68547422      -1.69284099      -1.76000000 NiMoCrFe_S5_021_seed3_T900K_final       0.00000000        0        0
Ni     -55.85075275      -1.59602880      -1.76000000 NiMoCrFe_S5_021_seed3_T900K_final       0.00000000        0        0
Ni     -47.80878588      -1.63846527      -1.76000000 NiMoCrFe_S5_021_seed3_T900K_final       0.00000000        0        0
Ni     -39.98281433      -1.59654161      -1.76000000 NiMoCrFe_S5_021_seed3_T900K_final       0.00000000        0        0
Ni     -32.39874690      -1.55412575      -1.76000000 NiMoCrFe_S5_021_seed3_T900K_final       0.00000000        0        0
Ni     -24.52081140      -1.57834987      -1.76000000 NiMoCrFe_S5_021_seed3_T900K_final       0.00000000        0        0
Ni     -16.66877530      -1.56748541      -1.76000000 NiMoCrFe_S5_021_seed3_T900K_final       0.00000000        0        0
Ni      -8.73818185      -1.59694249      -1.76000000 NiMoCrFe_S5_021_seed3_T900K_final       0.00000000        0        0
Ni      -1.22019138      -1.54545928      -1.76000000 NiMoCrFe_S5_021_seed3_T900K_final      -0.87393800        1        0
Ni     -76.09327718      -3.78334650      -1.76000000 NiMoCrFe_S5_021_seed3_T900K_final      -0.60343600        1        0
Ni     -68.30967764      -3.35661480      -1.76000000 NiMoCrFe_S5_021_seed3_T900K_final       0.00000000        0        0
Ni     -60.54632655      -3.23953782      -1.76000000 NiMoCrFe_S5_021_seed3_T900K_final       0.00000000        0        0
Mo     -52.60507505      -3.20757547      -1.76000000 NiMoCrFe_S5_021_seed3_T900K_final       0.00000000        0        0
Ni     -44.78241297      -3.08798919      -1.76000000 NiMoCrFe_S5_021_seed3_T900K_final       0.00000000        0        0
Cr     -36.95090897      -3.15094256      -1.76000000 NiMoCrFe_S5_021_seed3_T900K_final       0.00000000        0        0
Ni     -29.32015859      -3.10358484      -1.76000000 NiMoCrFe_S5_021_seed3_T900K_final       0.00000000        0        0
Ni     -21.48166287      -3.11210828      -1.76000000 NiMoCrFe_S5_021_seed3_T900K_final       0.00000000        0        0
Ni     -13.59308100      -3.10165258      -1.76000000 NiMoCrFe_S5_021_seed3_T900K_final       0.00000000        0        0
Ni      -5.70371537      -3.14002955      -1.76000000 NiMoCrFe_S5_021_seed3_T900K_final       0.00000000        0        0
Ni     -72.81633280      -1.20192987      -0.00000000 NiMoCrFe_S5_021_seed3_T900K_final       0.00000000        0        0
Ni     -65.29049670      -0.89100778      -0.00000000 NiMoCrFe_S5_021_seed3_T900K_final       0.00000000        0        0
Ni     -57.48608991      -0.80648173      -0.00000000 NiMoCrFe_S5_021_seed3_T900K_final       0.00000000        0        0
Ni     -49.42021367      -0.83531052      -0.00000000 NiMoCrFe_S5_021_seed3_T900K_final       0.00000000        0        0
Ni     -41.52116357      -0.83886587      -0.00000000 NiMoCrFe_S5_021_seed3_T900K_final       0.00000000        0        0
Ni     -33.91147588      -0.77682772      -0.00000000 NiMoCrFe_S5_021_seed3_T900K_final       0.00000000        0        0
Ni     -26.05941045      -0.82420278      -0.00000000 NiMoCrFe_S5_021_seed3_T900K_final       0.00000000        0        0
Mo     -18.30266902      -0.75071782      -0.00000000 NiMoCrFe_S5_021_seed3_T900K_final       0.00000000        0        0
Ni     -10.34192392      -0.79839841      -0.00000000 NiMoCrFe_S5_021_seed3_T900K_final       0.00000000        0        0
Ni      -2.62537444      -0.72545968      -0.00000000 NiMoCrFe_S5_021_seed3_T900K_final       0.01361800        1        0
Cr     -77.23271485      -2.55012089      -0.00000000 NiMoCrFe_S5_021_seed3_T900K_final       0.00000000        0        0
Ni     -69.81129937      -2.61840212      -0.00000000 NiMoCrFe_S5_021_seed3_T900K_final       0.00000000        0        0
Ni     -62.05950732      -2.50587550      -0.00000000 NiMoCrFe_S5_021_seed3_T900K_final       0.00000000        0        0
Ni     -54.24017958      -2.41419840      -0.00000000 NiMoCrFe_S5_021_seed3_T900K_final       0.00000000        0        0
Ni     -46.26055134      -2.37237252      -0.00000000 NiMoCrFe_S5_021_seed3_T900K_final       0.00000000        0        0
Ni     -38.46141586      -2.36647099      -0.00000000 NiMoCrFe_S5_021_seed3_T900K_final       0.00000000        0        0
Ni     -30.88500268      -2.32922380      -0.00000000 NiMoCrFe_S5_021_seed3_T900K_final       0.00000000        0        0
Ni     -23.02031991      -2.33914733      -0.00000000 NiMoCrFe_S5_021_seed3_T900K_final       0.00000000        0        0
Ni     -15.11821663      -2.33051751      -0.00000000 NiMoCrFe_S5_021_seed3_T900K_final       0.00000000        0        0
Mo      -7.23860874      -2.35888589      -0.00000000 NiMoCrFe_S5_021_seed3_T900K_final       0.00000000        0        0
130
Lattice="0.0 0.0 -3.52 2e-16 -3.9354796403996297 1.7600000000000007 -102.32247065039037 0.0 -6.3e-15" Properties=species:S:1:pos:R:3:frame_label:S:1:Eseg:R:1:probed:I:1:trap:I:1 pbc="T T T"
Ni    -100.73507346      -3.07557928      -0.00000000 NiMoCrFe_S5_021_seed3_T900K_snap_1000      -0.74949800        1        0
Ni     -92.94348480      -3.08332994      -0.00000000 NiMoCrFe_S5_021_seed3_T900K_snap_1000       0.00000000        0        0
Ni     -84.98917431      -2.91987121      -0.00000000 NiMoCrFe_S5_021_seed3_T900K_snap_1000       0.00000000        0        0
Ni     -97.59508550      -1.52647899      -0.00000000 NiMoCrFe_S5_021_seed3_T900K_snap_1000       0.00000000        0        0
Ni     -89.69449938      -1.42903707      -0.00000000 NiMoCrFe_S5_021_seed3_T900K_snap_1000       0.00000000        0        0
Ni     -81.92421372      -1.28536128      -0.00000000 NiMoCrFe_S5_021_seed3_T900K_snap_1000       0.00000000        0        0
Mo    -102.41911064      -0.05189295      -0.00000000 NiMoCrFe_S5_021_seed3_T900K_snap_1000       0.00000000        0        0
Ni     -94.48638436       0.05824833      -0.00000000 NiMoCrFe_S5_021_seed3_T900K_snap_1000       0.00000000        0        0
Fe     -86.53707166       0.20180240      -0.00000000 NiMoCrFe_S5_021_seed3_T900K_snap_1000       0.00000000        0        0
Cr     -99.07900665      -2.31649705      -1.76000000 NiMoCrFe_S5_021_seed3_T900K_snap_1000       0.00000000        0        0
Ni     -91.35918320      -2.26051240      -1.76000000 NiMoCrFe_S5_021_seed3_T900K_snap_1000       0.00000000        0        0
Ni     -83.45034297      -2.10360945      -1.76000000 NiMoCrFe_S5_021_seed3_T900K_snap_1000       0.00000000        0        0
Ni     -96.03728532      -0.73411611      -1.76000000 NiMoCrFe_S5_021_seed3_T900K_snap_1000       0.00000000        0        0
Ni     -88.09970190      -0.60485678      -1.76000000 NiMoCrFe_S5_021_seed3_T900K_snap_1000       0.00000000        0        0
Ni     -80.29974473      -0.44562797      -1.76000000 NiMoCrFe_S5_021_seed3_T900K_snap_1000      -0.36394600        1        0
Ni     -98.36935305       0.06085431      -1.76000000 NiMoCrFe_S5_021_seed3_T900K_snap_1000       0.00000000        0        0
Mo     -90.52444474       0.12333245      -1.76000000 NiMoCrFe_S5_021_seed3_T900K_snap_1000       0.00000000        0        0
Ni     -82.68482837       0.25928484      -1.76000000 NiMoCrFe_S5_021_seed3_T900K_snap_1000       0.00000000        0        0
Fe     -95.26160406      -2.30463203      -0.00000000 NiMoCrFe_S5_021_seed3_T900K_snap_1000       0.00000000        0        0
Ni     -87.31835967      -2.16700307      -0.00000000 NiMoCrFe_S5_021_seed3_T900K_snap_1000       0.00000000        0        0
Mo     -79.52164569      -1.97033826      -0.00000000 NiMoCrFe_S5_021_seed3_T900K_snap_1000       0.00000000        0        0
Ni     -99.90237589      -0.69306830      -0.00000000 NiMoCrFe_S5_021_seed3_T900K_snap_1000      -0.17416300        1        0
Ni     -92.15173235      -0.71646149      -0.00000000 NiMoCrFe_S5_021_seed3_T900K_snap_1000       0.00000000        0        0
Cr     -84.22563339      -0.54054659      -0.00000000 NiMoCrFe_S5_021_seed3_T900K_snap_1000       0.00000000        0        0
Ni     -96.81194104      -3.10241645      -1.76000000 NiMoCrFe_S5_021_seed3_T900K_snap_1000       0.00000000        0        0
Ni     -88.89697932      -2.96722185      -1.76000000 NiMoCrFe_S5_021_seed3_T900K_snap_1000       0.00000000        0        0
Ni     -81.11061355      -2.84982271      -1.76000000 NiMoCrFe_S5_021_seed3_T900K_snap_1000      -0.50454500        1        0
Ni    -101.29405351      -1.52895949      -1.76000000 NiMoCrFe_S5_021_seed3_T900K_snap_1000      -0.98869900        1        0
Ni     -93.72004128      -1.51441601      -1.76000000 NiMoCrFe_S5_021_seed3_T900K_snap_1000       0.00000000        0        0
Ni     -85.75674531      -1.35238739      -1.76000000 NiMoCrFe_S5_021_seed3_T900K_snap_1000       0.00000000        0        0
Ni     -77.59918320      -1.06840630      -1.76000000 NiMoCrFe_S5_021_seed3_T900K_snap_1000      -0.70771400        1        0
Ni     -69.01343826      -0.96683792      -1.76000000 NiMoCrFe_S5_021_seed3_T900K_snap_1000       0.00000000        0        0
Ni     -61.16519117      -0.86221721      -1.76000000 NiMoCrFe_S5_021_seed3_T900K_snap_1000       0.00000000        0        0
Ni     -53.35985979      -0.86400721      -1.76000000 NiMoCrFe_S5_021_seed3_T900K_snap_1000       0.00000000        0        0
Ni     -45.79620069      -0.73426151      -1.76000000 NiMoCrFe_S5_021_seed3_T900K_snap_1000       0.00000000        0        0
Ni     -37.76035192      -0.80001510      -1.76000000 NiMoCrFe_S5_021_seed3_T900K_snap_1000       0.00000000        0        0
Ni     -30.08050785      -0.76798782      -1.76000000 NiMoCrFe_S5_021_seed3_T900K_snap_1000       0.00000000        0        0
Ni     -22.30014735      -0.73243274      -1.76000000 NiMoCrFe_S5_021_seed3_T900K_snap_1000       0.00000000        0        0
Ni     -14.32741675      -0.72679884      -1.76000000 NiMoCrFe_S5_021_seed3_T900K_snap_1000       0.00000000        0        0
Fe      -6.48859762      -0.79997177      -1.76000000 NiMoCrFe_S5_021_seed3_T900K_snap_1000       0.00000000        0        0
Ni     -73.58504375      -2.73545216      -1.76000000 NiMoCrFe_S5_021_seed3_T900K_snap_1000       0.00000000        0        0
Cr     -66.01245651      -2.44991485      -1.76000000 NiMoCrFe_S5_021_seed3_T900K_snap_1000       0.00000000        0        0
Ni     -58.07969826      -2.42662335      -1.76000000 NiMoCrFe_S5_021_seed3_T900K_snap_1000       0.00000000        0        0
Ni     -50.32627157      -2.40696355      -1.76000000 NiMoCrFe_S5_021_seed3_T900K_snap_1000       0.00000000        0        0
Ni     -42.61208117      -2.31646983      -1.76000000 NiMoCrFe_S5_021_seed3_T900K_snap_1000       0.00000000        0        0
Ni     -34.56679380      -2.40310287      -1.76000000 NiMoCrFe_S5_021_seed3_T900K_snap_1000       0.00000000        0        0
Ni     -26.89618670      -2.38499357      -1.76000000 NiMoCrFe_S5_021_seed3_T900K_snap_1000       0.00000000        0        0
Mo     -18.94991223      -2.34429278      -1.76000000 NiMoCrFe_S5_021_seed3_T900K_snap_1000       0.00000000        0        0
Mo     -11.18773496      -2.33360687      -1.76000000 NiMoCrFe_S5_021_seed3_T900K_snap_1000       0.00000000        0        0
Cr      -3.46292215      -2.33333191      -1.76000000 NiMoCrFe_S5_021_seed3_T900K_snap_1000       0.00000000        0        0
Ni     -78.64323119       0.38698115      -0.00000000 NiMoCrFe_S5_021_seed3_T900K_snap_1000      -1.20297400        1        0
Ni     -70.52908425      -0.23778686      -0.00000000 NiMoCrFe_S5_021_seed3_T900K_snap_1000       0.00000000        0        0
Ni     -62.74157959      -0.06896231      -0.00000000 NiMoCrFe_S5_021_seed3_T900K_snap_1000       0.00000000        0        0
Ni     -54.86550003      -0.10474271      -0.00000000 NiMoCrFe_S5_021_seed3_T900K_snap_1000       0.00000000        0        0
Ni     -47.29829491       0.00302110      -0.00000000 NiMoCrFe_S5_021_seed3_T900K_snap_1000       0.00000000        0        0
Ni     -39.36633985       0.01314490      -0.00000000 NiMoCrFe_S5_021_seed3_T900K_snap_1000       0.00000000        0        0
Ni     -31.59528906       0.01562073      -0.00000000 NiMoCrFe_S5_021_seed3_T900K_snap_1000       0.00000000        0        0
Ni     -23.85817175       0.02769509      -0.00000000 NiMoCrFe_S5_021_seed3_T900K_snap_1000       0.00000000        0        0
Ni     -15.85002454       0.03004645      -0.00000000 NiMoCrFe_S5_021_seed3_T900K_snap_1000       0.00000000        0        0
Ni      -8.03493529      -0.01969976      -0.00000000 NiMoCrFe_S5_021_seed3_T900K_snap_1000       0.00000000        0        0
Ni     -75.04031119      -1.97812387      -0.00000000 NiMoCrFe_S5_021_seed3_T900K_snap_1000       0.00000000        0        0
Ni     -67.49303619      -1.70474975      -0.00000000 NiMoCrFe_S5_021_seed3_T900K_snap_1000       0.00000000        0        0
Ni     -59.64967659      -1.62507950      -0.00000000 NiMoCrFe_S5_021_seed3_T900K_snap_1000       0.00000000        0        0
Ni     -51.85811863      -1.63470164      -0.00000000 NiMoCrFe_S5_021_seed3_T900K_snap_1000       0.00000000        0        0
Ni     -44.24601545      -1.51774180      -0.00000000 NiMoCrFe_S5_021_seed3_T900K_snap_1000       0.00000000        0        0
Ni     -36.13548013      -1.61064051      -0.00000000 NiMoCrFe_S5_021_seed3_T900K_snap_1000       0.00000000        0        0
Ni     -28.52548355      -1.57457046      -0.00000000 NiMoCrFe_S5_021_seed3_T900K_snap_1000       0.00000000        0        0
Ni     -20.64649029      -1.51692686      -0.00000000 NiMoCrFe_S5_021_seed3_T900K_snap_1000       0.00000000        0        0
Ni     -12.79296370      -1.50055647      -0.00000000 NiMoCrFe_S5_021_seed3_T900K_snap_1000       0.00000000        0        0
Cr      -4.96425995      -1.57275335      -0.00000000 NiMoCrFe_S5_021_seed3_T900K_snap_1000       0.00000000        0        0
Ni     -72.04077238      -3.43496808      -0.00000000 NiMoCrFe_S5_021_seed3_T900K_snap_1000       0.00000000        0        0
Ni     -64.40487468      -3.20881510      -0.00000000 NiMoCrFe_S5_021_seed3_T900K_snap_1000       0.00000000        0        0
Ni     -56.42269844      -3.23905535      -0.00000000 NiMoCrFe_S5_021_seed3_T900K_snap_1000       0.00000000        0        0
Ni     -48.79544684      -3.17313728      -0.00000000 NiMoCrFe_S5_021_seed3_T900K_snap_1000       0.00000000        0        0
Ni     -40.99303303      -3.12675916      -0.00000000 NiMoCrFe_S5_021_seed3_T900K_snap_1000       0.00000000        0        0
Cr     -33.07901301      -3.16139257      -0.00000000 NiMoCrFe_S5_021_seed3_T900K_snap_1000       0.00000000        0        0
Ni     -25.34624619      -3.16714454      -0.00000000 NiMoCrFe_S5_021_seed3_T900K_snap_1000       0.00000000        0        0
Ni     -17.37822677      -3.16290103      -0.00000000 NiMoCrFe_S5_021_seed3_T900K_snap_1000       0.00000000        0        0
Ni      -9.58258226      -3.16928008      -0.00000000 NiMoCrFe_S5_021_seed3_T900K_snap_1000       0.00000000        0        0
Ni      -1.80402448      -3.10535945      -0.00000000 NiMoCrFe_S5_021_seed3_T900K_snap_1000      -0.69460600        1        0
Ni     -74.37312953      -0.39802026      -1.76000000 NiMoCrFe_S5_021_seed3_T900K_snap_1000       0.00000000        0        0
Ni     -66.72612089      -0.10008855      -1.76000000 NiMoCrFe_S5_021_seed3_T900K_snap_1000       0.00000000        0        0
Ni     -58.87500377      -0.03168310      -1.76000000 NiMoCrFe_S5_021_seed3_T900K_snap_1000       0.00000000        0        0
Ni     -51.08384810      -0.05168013      -1.76000000 NiMoCrFe_S5_021_seed3_T900K_snap_1000       0.00000000        0        0
Mo     -43.42309482       0.05423587      -1.76000000 NiMoCrFe_S5_021_seed3_T900K_snap_1000       0.00000000        0        0
Ni     -35.33793897      -0.05046188      -1.76000000 NiMoCrFe_S5_021_seed3_T900K_snap_1000       0.00000000        0        0
Mo     -27.71451327      -0.01360602      -1.76000000 NiMoCrFe_S5_021_seed3_T900K_snap_1000       0.00000000        0        0
Ni     -19.81983296       0.00370909      -1.76000000 NiMoCrFe_S5_021_seed3_T900K_snap_1000       0.00000000        0        0
Ni     -12.00797771       0.04657462      -1.76000000 NiMoCrFe_S5_021_seed3_T900K_snap_1000       0.00000000        0        0
Ni      -4.16863381       0.02770678      -1.76000000 NiMoCrFe_S5_021_seed3_T900K_snap_1000       0.00000000        0        0
Ni     -71.27674810      -1.84605302      -1.76000000 NiMoCrFe_S5_021_seed3_T900K_snap_1000       0.00000000        0        0
Mo     -63.56964623      -1.63142928      -1.76000000 NiMoCrFe_S5_021_seed3_T900K_snap_1000       0.00000000        0        0
Ni     -55.62797157      -1.69973845      -1.76000000 NiMoCrFe_S5_021_seed3_T900K_snap_1000       0.00000000        0        0
Ni     -48.04476118      -1.59787039      -1.76000000 NiMoCrFe_S5_021_seed3_T900K_snap_1000       0.00000000        0        0
Mo     -40.18047132      -1.55651229      -1.76000000 NiMoCrFe_S5_021_seed3_T900K_snap_1000       0.00000000        0        0
Ni     -32.33394977      -1.57554564      -1.76000000 NiMoCrFe_S5_021_seed3_T900K_snap_1000       0.00000000        0        0
Ni     -24.58735826      -1.57370996      -1.76000000 NiMoCrFe_S5_021_seed3_T900K_snap_1000       0.00000000        0        0
Ni     -16.58897459      -1.55607091      -1.76000000 NiMoCrFe_S5_021_seed3_T900K_snap_1000       0.00000000        0        0
Ni      -8.79565982      -1.59344306      -1.76000000 NiMoCrFe_S5_021_seed3_T900K_snap_1000       0.00000000        0        0
Ni      -1.22253545      -1.55030326      -1.76000000 NiMoCrFe_S5_021_seed3_T900K_snap_1000      -1.07242100        1        0
Mo     -76.01981169      -3.65036733      -1.76000000 NiMoCrFe_S5_021_seed3_T900K_snap_1000       0.00000000        0        0
Ni     -68.27116168      -3.29802145      -1.76000000 NiMoCrFe_S5_021_seed3_T900K_snap_1000       0.00000000        0        0
Cr     -60.40801582      -3.20993410      -1.76000000 NiMoCrFe_S5_021_seed3_T900K_snap_1000       0.00000000        0        0
Ni     -52.60907177      -3.20475737      -1.76000000 NiMoCrFe_S5_021_seed3_T900K_snap_1000       0.00000000        0        0
Ni     -45.04192327      -3.06690098      -1.76000000 NiMoCrFe_S5_021_seed3_T900K_snap_1000       0.00000000        0        0
Mo     -36.94306947      -3.17980793      -1.76000000 NiMoCrFe_S5_021_seed3_T900K_snap_1000       0.00000000        0        0
Ni     -29.30807002      -3.11819613      -1.76000000 NiMoCrFe_S5_021_seed3_T900K_snap_1000       0.00000000        0        0
Mo     -21.50648182      -3.10400727      -1.76000000 NiMoCrFe_S5_021_seed3_T900K_snap_1000       0.00000000        0        0
Ni     -13.57809070      -3.08556760      -1.76000000 NiMoCrFe_S5_021_seed3_T900K_snap_1000       0.00000000        0        0
Ni      -5.73072496      -3.15276694      -1.76000000 NiMoCrFe_S5_021_seed3_T900K_snap_1000       0.00000000        0        0
Ni     -72.79394901      -1.10548433      -0.00000000 NiMoCrFe_S5_021_seed3_T900K_snap_1000       0.00000000        0        0
Ni     -65.19156774      -0.84136944      -0.00000000 NiMoCrFe_S5_021_seed3_T900K_snap_1000       0.00000000        0        0
Mo     -57.25395513      -0.86525461      -0.00000000 NiMoCrFe_S5_021_seed3_T900K_snap_1000       0.00000000        0        0
Ni     -49.56967392      -0.82604437      -0.00000000 NiMoCrFe_S5_021_seed3_T900K_snap_1000       0.00000000        0        0
Ni     -41.80739935      -0.75328870      -0.00000000 NiMoCrFe_S5_021_seed3_T900K_snap_1000       0.00000000        0        0
Ni     -33.82987037      -0.81039409      -0.00000000 NiMoCrFe_S5_021_seed3_T900K_snap_1000       0.00000000        0        0
Ni     -26.12276306      -0.83091756      -0.00000000 NiMoCrFe_S5_021_seed3_T900K_snap_1000       0.00000000        0        0
Ni     -18.16201656      -0.78524374      -0.00000000 NiMoCrFe_S5_021_seed3_T900K_snap_1000       0.00000000        0        0
Ni     -10.36851510      -0.77715719      -0.00000000 NiMoCrFe_S5_021_seed3_T900K_snap_1000       0.00000000        0        0
Ni      -2.63463241      -0.72213359      -0.00000000 NiMoCrFe_S5_021_seed3_T900K_snap_1000      -0.14857000        1        0
Ni     -77.23970789      -2.61137118      -0.00000000 NiMoCrFe_S5_021_seed3_T900K_snap_1000      -0.97578900        1        0
Cr     -69.77733621      -2.56915674      -0.00000000 NiMoCrFe_S5_021_seed3_T900K_snap_1000       0.00000000        0        0
Ni     -61.94350494      -2.46500632      -0.00000000 NiMoCrFe_S5_021_seed3_T900K_snap_1000       0.00000000        0        0
Cr     -54.10478674      -2.45307725      -0.00000000 NiMoCrFe_S5_021_seed3_T900K_snap_1000       0.00000000        0        0
Cr     -46.55282314      -2.33235644      -0.00000000 NiMoCrFe_S5_021_seed3_T900K_snap_1000       0.00000000        0        0
Ni     -38.55646795      -2.36369972      -0.00000000 NiMoCrFe_S5_021_seed3_T900K_snap_1000       0.00000000        0        0
Ni     -30.84915448      -2.34968180      -0.00000000 NiMoCrFe_S5_021_seed3_T900K_snap_1000       0.00000000        0        0
Fe     -23.08706551      -2.28784732      -0.00000000 NiMoCrFe_S5_021_seed3_T900K_snap_1000       0.00000000        0        0
Fe     -15.08741242      -2.31841140      -0.00000000 NiMoCrFe_S5_021_seed3_T900K_snap_1000       0.00000000        0        0
Ni      -7.26372062      -2.37517954      -0.00000000 NiMoCrFe_S5_021_seed3_T900K_snap_1000       0.00000000        0        0
130
Lattice="0.0 0.0 -3.52 2e-16 -3.9354796403996297 1.7600000000000007 -102.32247065039037 0.0 -6.3e-15" Properties=species:S:1:pos:R:3:frame_label:S:1:Eseg:R:1:probed:I:1:trap:I:1 pbc="T T T"
Ni    -100.86720883      -3.00932910      -0.00000000 NiMoCrFe_S5_021_seed4_T900K_final      -0.98938700        1        0
Fe     -92.95015591      -3.06588367      -0.00000000 NiMoCrFe_S5_021_seed4_T900K_final       0.00000000        0        0
Ni     -85.23700095      -3.02832849      -0.00000000 NiMoCrFe_S5_021_seed4_T900K_final       0.00000000        0        0
Ni     -97.74373939      -1.49564099      -0.00000000 NiMoCrFe_S5_021_seed4_T900K_final       0.00000000        0        0
Ni     -89.84958508      -1.46197037      -0.00000000 NiMoCrFe_S5_021_seed4_T900K_final       0.00000000        0        0
Ni     -82.00255488      -1.36609765      -0.00000000 NiMoCrFe_S5_021_seed4_T900K_final       0.00000000        0        0
Mo    -102.53311403       0.00890399      -0.00000000 NiMoCrFe_S5_021_seed4_T900K_final       0.00000000        0        0
Ni     -94.60958000       0.06445434      -0.00000000 NiMoCrFe_S5_021_seed4_T900K_final       0.00000000        0        0
Ni     -86.76805172       0.10822518      -0.00000000 NiMoCrFe_S5_021_seed4_T900K_final       0.00000000        0        0
Ni     -99.21040522      -2.26471835      -1.76000000 NiMoCrFe_S5_021_seed4_T900K_final       0.00000000        0        0
Ni     -91.37510347      -2.25758971      -1.76000000 NiMoCrFe_S5_021_seed4_T900K_final       0.00000000        0        0
Ni     -83.63843408      -2.19890007      -1.76000000 NiMoCrFe_S5_021_seed4_T900K_final       0.00000000        0        0
Ni     -96.20174196      -0.72551447      -1.76000000 NiMoCrFe_S5_021_seed4_T900K_final       0.00000000        0        0
Ni     -88.30287663      -0.67305107      -1.76000000 NiMoCrFe_S5_021_seed4_T900K_final       0.00000000        0        0
Ni     -80.33719938      -0.58681325      -1.76000000 NiMoCrFe_S5_021_seed4_T900K_final      -0.17303200        1        0
Cr     -98.51911664       0.10548506      -1.76000000 NiMoCrFe_S5_021_seed4_T900K_final       0.00000000        0        0
Ni     -90.60763703       0.10886483      -1.76000000 NiMoCrFe_S5_021_seed4_T900K_final       0.00000000        0        0
Ni     -82.80634991       0.18459807      -1.76000000 NiMoCrFe_S5_021_seed4_T900K_final       0.00000000        0        0
Fe     -95.41379531      -2.31603117      -0.00000000 NiMoCrFe_S5_021_seed4_T900K_final       0.00000000        0        0
Ni     -87.53688711      -2.25638260      -0.00000000 NiMoCrFe_S5_021_seed4_T900K_final       0.00000000        0        0
Cr     -79.76019907      -2.09708144      -0.00000000 NiMoCrFe_S5_021_seed4_T900K_final       0.00000000        0        0
Ni    -100.02895699      -0.63215849      -0.00000000 NiMoCrFe_S5_021_seed4_T900K_final      -0.46737600        1        0
Ni     -92.14920475      -0.66911565      -0.00000000 NiMoCrFe_S5_021_seed4_T900K_final       0.00000000        0        0
Mo     -84.45051911      -0.65682496      -0.00000000 NiMoCrFe_S5_021_seed4_T900K_final       0.00000000        0        0
Ni     -96.97353699      -3.08048508      -1.76000000 NiMoCrFe_S5_021_seed4_T900K_final       0.00000000        0        0
Cr     -89.07289095      -3.04859134      -1.76000000 NiMoCrFe_S5_021_seed4_T900K_final       0.00000000        0        0
Ni     -81.15908977      -2.92722676      -1.76000000 NiMoCrFe_S5_021_seed4_T900K_final      -0.35811300        1        0
Ni    -101.40768917      -1.46439299      -1.76000000 NiMoCrFe_S5_021_seed4_T900K_final      -1.26978200        1        0
Mo     -93.79131929      -1.50107273      -1.76000000 NiMoCrFe_S5_021_seed4_T900K_final       0.00000000        0        0
Ni     -86.00240610      -1.45645063      -1.76000000 NiMoCrFe_S5_021_seed4_T900K_final       0.00000000        0        0
Mo     -77.29960542      -1.09744844      -1.76000000 NiMoCrFe_S5_021_seed4_T900K_final       0.00000000        0        0
Ni     -69.10821470      -0.95056843      -1.76000000 NiMoCrFe_S5_021_seed4_T900K_final       0.00000000        0        0
Cr     -61.21731164      -0.81906621      -1.76000000 NiMoCrFe_S5_021_seed4_T900K_final       0.00000000        0        0
Ni     -53.36830821      -0.81671687      -1.76000000 NiMoCrFe_S5_021_seed4_T900K_final       0.00000000        0        0
Cr     -45.54487482      -0.78309461      -1.76000000 NiMoCrFe_S5_021_seed4_T900K_final       0.00000000        0        0
Ni     -37.50065184      -0.83743991      -1.76000000 NiMoCrFe_S5_021_seed4_T900K_final       0.00000000        0        0
Ni     -29.93270599      -0.76208671      -1.76000000 NiMoCrFe_S5_021_seed4_T900K_final       0.00000000        0        0
Ni     -22.14257034      -0.71748858      -1.76000000 NiMoCrFe_S5_021_seed4_T900K_final       0.00000000        0        0
Ni     -14.32232014      -0.74120041      -1.76000000 NiMoCrFe_S5_021_seed4_T900K_final       0.00000000        0        0
Ni      -6.51341603      -0.75861979      -1.76000000 NiMoCrFe_S5_021_seed4_T900K_final       0.00000000        0        0
Ni     -73.86157768      -2.63833330      -1.76000000 NiMoCrFe_S5_021_seed4_T900K_final       0.00000000        0        0
Ni     -65.91839090      -2.47226581      -1.76000000 NiMoCrFe_S5_021_seed4_T900K_final       0.00000000        0        0
Ni     -58.14834704      -2.34753216      -1.76000000 NiMoCrFe_S5_021_seed4_T900K_final       0.00000000        0        0
Ni     -50.34839230      -2.35019806      -1.76000000 NiMoCrFe_S5_021_seed4_T900K_final       0.00000000        0        0
Ni     -42.33537924      -2.36274432      -1.76000000 NiMoCrFe_S5_021_seed4_T900K_final       0.00000000        0        0
Cr     -34.47174672      -2.37901348      -1.76000000 NiMoCrFe_S5_021_seed4_T900K_final       0.00000000        0        0
Ni     -26.71480887      -2.40490495      -1.76000000 NiMoCrFe_S5_021_seed4_T900K_final       0.00000000        0        0
Ni     -18.89103067      -2.39215884      -1.76000000 NiMoCrFe_S5_021_seed4_T900K_final       0.00000000        0        0
Mo     -11.17676975      -2.33815955      -1.76000000 NiMoCrFe_S5_021_seed4_T900K_final       0.00000000        0        0
Ni      -3.52076267      -2.29483045      -1.76000000 NiMoCrFe_S5_021_seed4_T900K_final       0.00000000        0        0
Ni     -78.80763014       0.17569817      -0.00000000 NiMoCrFe_S5_021_seed4_T900K_final      -0.58301800        1        0
Ni     -70.63250924      -0.22844699      -0.00000000 NiMoCrFe_S5_021_seed4_T900K_final       0.00000000        0        0
Ni     -62.74801513      -0.07967237      -0.00000000 NiMoCrFe_S5_021_seed4_T900K_final       0.00000000        0        0
Ni     -54.90862402      -0.05673168      -0.00000000 NiMoCrFe_S5_021_seed4_T900K_final       0.00000000        0        0
Ni     -47.11278864      -0.00054927      -0.00000000 NiMoCrFe_S5_021_seed4_T900K_final       0.00000000        0        0
Ni     -39.07425938      -0.05771203      -0.00000000 NiMoCrFe_S5_021_seed4_T900K_final       0.00000000        0        0
Ni     -31.46434996      -0.00705287      -0.00000000 NiMoCrFe_S5_021_seed4_T900K_final       0.00000000        0        0
Cr     -23.66487504       0.02369076      -0.00000000 NiMoCrFe_S5_021_seed4_T900K_final       0.00000000        0        0
Ni     -15.83436993       0.02027653      -0.00000000 NiMoCrFe_S5_021_seed4_T900K_final       0.00000000        0        0
Ni      -8.03538582       0.00503218      -0.00000000 NiMoCrFe_S5_021_seed4_T900K_final       0.00000000        0        0
Ni     -75.43117176      -1.83385178      -0.00000000 NiMoCrFe_S5_021_seed4_T900K_final       0.00000000        0        0
Cr     -67.55229217      -1.67470750      -0.00000000 NiMoCrFe_S5_021_seed4_T900K_final       0.00000000        0        0
Ni     -59.69400184      -1.57732681      -0.00000000 NiMoCrFe_S5_021_seed4_T900K_final       0.00000000        0        0
Cr     -51.85150259      -1.57959125      -0.00000000 NiMoCrFe_S5_021_seed4_T900K_final       0.00000000        0        0
Ni     -43.97743414      -1.56117576      -0.00000000 NiMoCrFe_S5_021_seed4_T900K_final       0.00000000        0        0
Ni     -35.99068812      -1.60579809      -0.00000000 NiMoCrFe_S5_021_seed4_T900K_final       0.00000000        0        0
Mo     -28.33001351      -1.58252848      -0.00000000 NiMoCrFe_S5_021_seed4_T900K_final       0.00000000        0        0
Mo     -20.50564726      -1.55183433      -0.00000000 NiMoCrFe_S5_021_seed4_T900K_final       0.00000000        0        0
Ni     -12.78524520      -1.50981296      -0.00000000 NiMoCrFe_S5_021_seed4_T900K_final       0.00000000        0        0
Ni      -4.99463247      -1.52630252      -0.00000000 NiMoCrFe_S5_021_seed4_T900K_final       0.00000000        0        0
Ni     -72.21372321      -3.41299420      -0.00000000 NiMoCrFe_S5_021_seed4_T900K_final       0.00000000        0        0
Ni     -64.30033868      -3.27248500      -0.00000000 NiMoCrFe_S5_021_seed4_T900K_final       0.00000000        0        0
Ni     -56.52078062      -3.16924730      -0.00000000 NiMoCrFe_S5_021_seed4_T900K_final       0.00000000        0        0
Mo     -48.76235084      -3.13686539      -0.00000000 NiMoCrFe_S5_021_seed4_T900K_final       0.00000000        0        0
Ni     -40.71126555      -3.18817460      -0.00000000 NiMoCrFe_S5_021_seed4_T900K_final       0.00000000        0        0
Ni     -32.98642800      -3.17929062      -0.00000000 NiMoCrFe_S5_021_seed4_T900K_final       0.00000000        0        0
Ni     -25.16761841      -3.17931280      -0.00000000 NiMoCrFe_S5_021_seed4_T900K_final       0.00000000        0        0
Fe     -17.35457122      -3.15533790      -0.00000000 NiMoCrFe_S5_021_seed4_T900K_final       0.00000000        0        0
Ni      -9.56445669      -3.16393565      -0.00000000 NiMoCrFe_S5_021_seed4_T900K_final       0.00000000        0        0
Ni      -1.88058844      -3.03997863      -0.00000000 NiMoCrFe_S5_021_seed4_T900K_final      -1.07387300        1        0
Ni     -74.69363825      -0.26543510      -1.76000000 NiMoCrFe_S5_021_seed4_T900K_final       0.00000000        0        0
Ni     -66.75107933      -0.11053607      -1.76000000 NiMoCrFe_S5_021_seed4_T900K_final       0.00000000        0        0
Ni     -58.94076599       0.00923760      -1.76000000 NiMoCrFe_S5_021_seed4_T900K_final       0.00000000        0        0
Ni     -51.10822299       0.01569607      -1.76000000 NiMoCrFe_S5_021_seed4_T900K_final       0.00000000        0        0
Mo     -43.14819748       0.01136473      -1.76000000 NiMoCrFe_S5_021_seed4_T900K_final       0.00000000        0        0
Ni     -35.25227765      -0.02242062      -1.76000000 NiMoCrFe_S5_021_seed4_T900K_final       0.00000000        0        0
Ni     -27.50112085      -0.02050834      -1.76000000 NiMoCrFe_S5_021_seed4_T900K_final       0.00000000        0        0
Ni     -19.67566891       0.00107866      -1.76000000 NiMoCrFe_S5_021_seed4_T900K_final       0.00000000        0        0
Ni     -12.00007853       0.03871402      -1.76000000 NiMoCrFe_S5_021_seed4_T900K_final       0.00000000        0        0
Fe      -4.21885828       0.07495519      -1.76000000 NiMoCrFe_S5_021_seed4_T900K_final       0.00000000        0        0
Ni     -71.41907980      -1.83955484      -1.76000000 NiMoCrFe_S5_021_seed4_T900K_final       0.00000000        0        0
Ni     -63.51449434      -1.67173975      -1.76000000 NiMoCrFe_S5_021_seed4_T900K_final       0.00000000        0        0
Mo     -55.70685999      -1.60887045      -1.76000000 NiMoCrFe_S5_021_seed4_T900K_final       0.00000000        0        0
Ni     -47.94539803      -1.57161768      -1.76000000 NiMoCrFe_S5_021_seed4_T900K_final       0.00000000        0        0
Mo     -39.89496367      -1.62807417      -1.76000000 NiMoCrFe_S5_021_seed4_T900K_final       0.00000000        0        0
Ni     -32.19780713      -1.59155019      -1.76000000 NiMoCrFe_S5_021_seed4_T900K_final       0.00000000        0        0
Ni     -24.41876448      -1.57679046      -1.76000000 NiMoCrFe_S5_021_seed4_T900K_final       0.00000000        0        0
Ni     -16.57893073      -1.56750371      -1.76000000 NiMoCrFe_S5_021_seed4_T900K_final       0.00000000        0        0
Ni      -8.77775776      -1.58232793      -1.76000000 NiMoCrFe_S5_021_seed4_T900K_final       0.00000000        0        0
Ni      -1.32936419      -1.49504528      -1.76000000 NiMoCrFe_S5_021_seed4_T900K_final      -1.35911200        1        0
Ni     -76.22797818      -3.45469855      -1.76000000 NiMoCrFe_S5_021_seed4_T900K_final      -0.78349400        1        0
Ni     -68.33167690      -3.27615789      -1.76000000 NiMoCrFe_S5_021_seed4_T900K_final       0.00000000        0        0
Ni     -60.45876804      -3.16302878      -1.76000000 NiMoCrFe_S5_021_seed4_T900K_final       0.00000000        0        0
Ni     -52.61705411      -3.17231365      -1.76000000 NiMoCrFe_S5_021_seed4_T900K_final       0.00000000        0        0
Ni     -44.77136868      -3.12507818      -1.76000000 NiMoCrFe_S5_021_seed4_T900K_final       0.00000000        0        0
Cr     -36.74312079      -3.19947683      -1.76000000 NiMoCrFe_S5_021_seed4_T900K_final       0.00000000        0        0
Ni     -29.14438742      -3.14369334      -1.76000000 NiMoCrFe_S5_021_seed4_T900K_final       0.00000000        0        0
Ni     -21.34377507      -3.11193293      -1.76000000 NiMoCrFe_S5_021_seed4_T900K_final       0.00000000        0        0
Ni     -13.56285015      -3.09285350      -1.76000000 NiMoCrFe_S5_021_seed4_T900K_final       0.00000000        0        0
Ni      -5.77167253      -3.10459363      -1.76000000 NiMoCrFe_S5_021_seed4_T900K_final       0.00000000        0        0
Mo     -73.03404895      -1.05338856      -0.00000000 NiMoCrFe_S5_021_seed4_T900K_final       0.00000000        0        0
Mo     -65.09751233      -0.89764475      -0.00000000 NiMoCrFe_S5_021_seed4_T900K_final       0.00000000        0        0
Ni     -57.35857420      -0.79958955      -0.00000000 NiMoCrFe_S5_021_seed4_T900K_final       0.00000000        0        0
Ni     -49.55217739      -0.75682006      -0.00000000 NiMoCrFe_S5_021_seed4_T900K_final       0.00000000        0        0
Ni     -41.52289322      -0.81019525      -0.00000000 NiMoCrFe_S5_021_seed4_T900K_final       0.00000000        0        0
Ni     -33.72566347      -0.81320291      -0.00000000 NiMoCrFe_S5_021_seed4_T900K_final       0.00000000        0        0
Ni     -25.92410750      -0.81702556      -0.00000000 NiMoCrFe_S5_021_seed4_T900K_final       0.00000000        0        0
Ni     -18.10790097      -0.79848421      -0.00000000 NiMoCrFe_S5_021_seed4_T900K_final       0.00000000        0        0
Ni     -10.36124942      -0.77824131      -0.00000000 NiMoCrFe_S5_021_seed4_T900K_final       0.00000000        0        0
Ni      -2.70600374      -0.66240884      -0.00000000 NiMoCrFe_S5_021_seed4_T900K_final      -0.72131600        1        0
Ni     -77.62500312      -2.65875172      -0.00000000 NiMoCrFe_S5_021_seed4_T900K_final      -0.06950300        1        0
Ni     -69.86838310      -2.55866785      -0.00000000 NiMoCrFe_S5_021_seed4_T900K_final       0.00000000        0        0
Ni     -61.97877867      -2.41646386      -0.00000000 NiMoCrFe_S5_021_seed4_T900K_final       0.00000000        0        0
Ni     -54.11559458      -2.40559439      -0.00000000 NiMoCrFe_S5_021_seed4_T900K_final       0.00000000        0        0
Ni     -46.32347677      -2.37329500      -0.00000000 NiMoCrFe_S5_021_seed4_T900K_final       0.00000000        0        0
Ni     -38.28209442      -2.43127358      -0.00000000 NiMoCrFe_S5_021_seed4_T900K_final       0.00000000        0        0
Ni     -30.71881134      -2.35192886      -0.00000000 NiMoCrFe_S5_021_seed4_T900K_final       0.00000000        0        0
Ni     -22.91140039      -2.31572376      -0.00000000 NiMoCrFe_S5_021_seed4_T900K_final       0.00000000        0        0
Fe     -15.07784217      -2.32708682      -0.00000000 NiMoCrFe_S5_021_seed4_T900K_final       0.00000000        0        0
Ni      -7.28323883      -2.34538935      -0.00000000 NiMoCrFe_S5_021_seed4_T900K_final       0.00000000        0        0
130
Lattice="0.0 0.0 -3.52 2e-16 -3.9354796403996297 1.7600000000000007 -102.32247065039037 0.0 -6.3e-15" Properties=species:S:1:pos:R:3:frame_label:S:1:Eseg:R:1:probed:I:1:trap:I:1 pbc="T T T"
Ni    -100.88329709      -3.00269316      -0.00000000 NiMoCrFe_S5_021_seed4_T900K_snap_1000      -0.65474100        1        0
Ni     -93.02561743      -3.07216087      -0.00000000 NiMoCrFe_S5_021_seed4_T900K_snap_1000       0.00000000        0        0
Ni     -85.11837172      -3.00576742      -0.00000000 NiMoCrFe_S5_021_seed4_T900K_snap_1000       0.00000000        0        0
Ni     -97.77337002      -1.48079340      -0.00000000 NiMoCrFe_S5_021_seed4_T900K_snap_1000       0.00000000        0        0
Ni     -89.92175165      -1.50942000      -0.00000000 NiMoCrFe_S5_021_seed4_T900K_snap_1000       0.00000000        0        0
Ni     -82.04752845      -1.37323746      -0.00000000 NiMoCrFe_S5_021_seed4_T900K_snap_1000       0.00000000        0        0
Mo    -102.54033138       0.00950873      -0.00000000 NiMoCrFe_S5_021_seed4_T900K_snap_1000       0.00000000        0        0
Ni     -94.67224872       0.06299070      -0.00000000 NiMoCrFe_S5_021_seed4_T900K_snap_1000       0.00000000        0        0
Ni     -86.68773420       0.10772194      -0.00000000 NiMoCrFe_S5_021_seed4_T900K_snap_1000       0.00000000        0        0
Cr     -99.23192820      -2.25471128      -1.76000000 NiMoCrFe_S5_021_seed4_T900K_snap_1000       0.00000000        0        0
Ni     -91.44215086      -2.27773680      -1.76000000 NiMoCrFe_S5_021_seed4_T900K_snap_1000       0.00000000        0        0
Ni     -83.60753169      -2.20221053      -1.76000000 NiMoCrFe_S5_021_seed4_T900K_snap_1000       0.00000000        0        0
Ni     -96.24360563      -0.72449631      -1.76000000 NiMoCrFe_S5_021_seed4_T900K_snap_1000       0.00000000        0        0
Ni     -88.34615256      -0.71262059      -1.76000000 NiMoCrFe_S5_021_seed4_T900K_snap_1000       0.00000000        0        0
Ni     -80.33785727      -0.52728134      -1.76000000 NiMoCrFe_S5_021_seed4_T900K_snap_1000      -0.53014100        1        0
Ni     -98.54222240       0.11831174      -1.76000000 NiMoCrFe_S5_021_seed4_T900K_snap_1000       0.00000000        0        0
Ni     -90.68162310       0.07511896      -1.76000000 NiMoCrFe_S5_021_seed4_T900K_snap_1000       0.00000000        0        0
Ni     -82.82140885       0.14950020      -1.76000000 NiMoCrFe_S5_021_seed4_T900K_snap_1000       0.00000000        0        0
Fe     -95.46147845      -2.32110118      -0.00000000 NiMoCrFe_S5_021_seed4_T900K_snap_1000       0.00000000        0        0
Mo     -87.52672057      -2.27189499      -0.00000000 NiMoCrFe_S5_021_seed4_T900K_snap_1000       0.00000000        0        0
Ni     -79.63783973      -2.02802447      -0.00000000 NiMoCrFe_S5_021_seed4_T900K_snap_1000      -0.70686600        1        0
Ni    -100.04935282      -0.62193636      -0.00000000 NiMoCrFe_S5_021_seed4_T900K_snap_1000      -0.08203100        1        0
Ni     -92.22844898      -0.68141326      -0.00000000 NiMoCrFe_S5_021_seed4_T900K_snap_1000       0.00000000        0        0
Cr     -84.36368324      -0.63345755      -0.00000000 NiMoCrFe_S5_021_seed4_T900K_snap_1000       0.00000000        0        0
Ni     -96.99796786      -3.07124927      -1.76000000 NiMoCrFe_S5_021_seed4_T900K_snap_1000       0.00000000        0        0
Ni     -89.13504143      -3.09888811      -1.76000000 NiMoCrFe_S5_021_seed4_T900K_snap_1000       0.00000000        0        0
Mo     -81.20288336      -2.92826760      -1.76000000 NiMoCrFe_S5_021_seed4_T900K_snap_1000       0.00000000        0        0
Ni    -101.41864441      -1.45931489      -1.76000000 NiMoCrFe_S5_021_seed4_T900K_snap_1000      -0.94199100        1        0
Mo     -93.83676727      -1.50370770      -1.76000000 NiMoCrFe_S5_021_seed4_T900K_snap_1000       0.00000000        0        0
Ni     -85.89767639      -1.42072957      -1.76000000 NiMoCrFe_S5_021_seed4_T900K_snap_1000       0.00000000        0        0
Mo     -77.41379290      -1.18510606      -1.76000000 NiMoCrFe_S5_021_seed4_T900K_snap_1000       0.00000000        0        0
Ni     -69.09316654      -0.96561162      -1.76000000 NiMoCrFe_S5_021_seed4_T900K_snap_1000       0.00000000        0        0
Ni     -61.21736416      -0.85066990      -1.76000000 NiMoCrFe_S5_021_seed4_T900K_snap_1000       0.00000000        0        0
Ni     -53.32206032      -0.79650027      -1.76000000 NiMoCrFe_S5_021_seed4_T900K_snap_1000       0.00000000        0        0
Ni     -45.43696131      -0.80537181      -1.76000000 NiMoCrFe_S5_021_seed4_T900K_snap_1000       0.00000000        0        0
Ni     -37.58847405      -0.84084712      -1.76000000 NiMoCrFe_S5_021_seed4_T900K_snap_1000       0.00000000        0        0
Ni     -29.80219772      -0.82019909      -1.76000000 NiMoCrFe_S5_021_seed4_T900K_snap_1000       0.00000000        0        0
Mo     -22.06229197      -0.76526070      -1.76000000 NiMoCrFe_S5_021_seed4_T900K_snap_1000       0.00000000        0        0
Ni     -14.36143742      -0.74291445      -1.76000000 NiMoCrFe_S5_021_seed4_T900K_snap_1000       0.00000000        0        0
Ni      -6.52153177      -0.77206330      -1.76000000 NiMoCrFe_S5_021_seed4_T900K_snap_1000       0.00000000        0        0
Ni     -73.81489236      -2.63754930      -1.76000000 NiMoCrFe_S5_021_seed4_T900K_snap_1000       0.00000000        0        0
Ni     -66.01527944      -2.44678817      -1.76000000 NiMoCrFe_S5_021_seed4_T900K_snap_1000       0.00000000        0        0
Ni     -58.11971687      -2.33759829      -1.76000000 NiMoCrFe_S5_021_seed4_T900K_snap_1000       0.00000000        0        0
Ni     -50.25087890      -2.32556876      -1.76000000 NiMoCrFe_S5_021_seed4_T900K_snap_1000       0.00000000        0        0
Ni     -42.38720205      -2.35255615      -1.76000000 NiMoCrFe_S5_021_seed4_T900K_snap_1000       0.00000000        0        0
Fe     -34.54700615      -2.39343067      -1.76000000 NiMoCrFe_S5_021_seed4_T900K_snap_1000       0.00000000        0        0
Ni     -26.70842235      -2.38533214      -1.76000000 NiMoCrFe_S5_021_seed4_T900K_snap_1000       0.00000000        0        0
Ni     -18.89888949      -2.36290686      -1.76000000 NiMoCrFe_S5_021_seed4_T900K_snap_1000       0.00000000        0        0
Mo     -11.20371135      -2.35693093      -1.76000000 NiMoCrFe_S5_021_seed4_T900K_snap_1000       0.00000000        0        0
Cr      -3.52209849      -2.29944024      -1.76000000 NiMoCrFe_S5_021_seed4_T900K_snap_1000       0.00000000        0        0
Ni     -78.76239032       0.26555367      -0.00000000 NiMoCrFe_S5_021_seed4_T900K_snap_1000      -1.05021900        1        0
Cr     -70.56274524      -0.21399544      -0.00000000 NiMoCrFe_S5_021_seed4_T900K_snap_1000       0.00000000        0        0
Mo     -62.84719494      -0.04926691      -0.00000000 NiMoCrFe_S5_021_seed4_T900K_snap_1000       0.00000000        0        0
Ni     -54.86194551      -0.03249141      -0.00000000 NiMoCrFe_S5_021_seed4_T900K_snap_1000       0.00000000        0        0
Ni     -47.00214858      -0.03498238      -0.00000000 NiMoCrFe_S5_021_seed4_T900K_snap_1000       0.00000000        0        0
Ni     -39.15060913      -0.03284025      -0.00000000 NiMoCrFe_S5_021_seed4_T900K_snap_1000       0.00000000        0        0
Ni     -31.44391239      -0.01537415      -0.00000000 NiMoCrFe_S5_021_seed4_T900K_snap_1000       0.00000000        0        0
Ni     -23.68864686       0.06876264      -0.00000000 NiMoCrFe_S5_021_seed4_T900K_snap_1000       0.00000000        0        0
Ni     -15.89677459       0.04835859      -0.00000000 NiMoCrFe_S5_021_seed4_T900K_snap_1000       0.00000000        0        0
Ni      -8.04918625      -0.00966135      -0.00000000 NiMoCrFe_S5_021_seed4_T900K_snap_1000       0.00000000        0        0
Ni     -75.38504444      -1.85387328      -0.00000000 NiMoCrFe_S5_021_seed4_T900K_snap_1000       0.00000000        0        0
Ni     -67.55460988      -1.71078623      -0.00000000 NiMoCrFe_S5_021_seed4_T900K_snap_1000       0.00000000        0        0
Fe     -59.66899378      -1.59039850      -0.00000000 NiMoCrFe_S5_021_seed4_T900K_snap_1000       0.00000000        0        0
Ni     -51.79438279      -1.56153815      -0.00000000 NiMoCrFe_S5_021_seed4_T900K_snap_1000       0.00000000        0        0
Fe     -43.92208107      -1.57481170      -0.00000000 NiMoCrFe_S5_021_seed4_T900K_snap_1000       0.00000000        0        0
Ni     -36.07056722      -1.61371575      -0.00000000 NiMoCrFe_S5_021_seed4_T900K_snap_1000       0.00000000        0        0
Ni     -28.23195583      -1.61626218      -0.00000000 NiMoCrFe_S5_021_seed4_T900K_snap_1000       0.00000000        0        0
Ni     -20.45134858      -1.58415376      -0.00000000 NiMoCrFe_S5_021_seed4_T900K_snap_1000       0.00000000        0        0
Ni     -12.82011182      -1.52854591      -0.00000000 NiMoCrFe_S5_021_seed4_T900K_snap_1000       0.00000000        0        0
Ni      -4.99676967      -1.53509385      -0.00000000 NiMoCrFe_S5_021_seed4_T900K_snap_1000       0.00000000        0        0
Ni     -72.16205858      -3.40629854      -0.00000000 NiMoCrFe_S5_021_seed4_T900K_snap_1000       0.00000000        0        0
Ni     -64.46419447      -3.18680042      -0.00000000 NiMoCrFe_S5_021_seed4_T900K_snap_1000       0.00000000        0        0
Mo     -56.48721617      -3.15227729      -0.00000000 NiMoCrFe_S5_021_seed4_T900K_snap_1000       0.00000000        0        0
Mo     -48.62786093      -3.14675949      -0.00000000 NiMoCrFe_S5_021_seed4_T900K_snap_1000       0.00000000        0        0
Ni     -40.81156609      -3.15389344      -0.00000000 NiMoCrFe_S5_021_seed4_T900K_snap_1000       0.00000000        0        0
Ni     -33.01167148      -3.16209223      -0.00000000 NiMoCrFe_S5_021_seed4_T900K_snap_1000       0.00000000        0        0
Cr     -25.21615735      -3.12221144      -0.00000000 NiMoCrFe_S5_021_seed4_T900K_snap_1000       0.00000000        0        0
Cr     -17.38963453      -3.11169887      -0.00000000 NiMoCrFe_S5_021_seed4_T900K_snap_1000       0.00000000        0        0
Ni      -9.58521889      -3.17973469      -0.00000000 NiMoCrFe_S5_021_seed4_T900K_snap_1000       0.00000000        0        0
Ni      -1.87990996      -3.03921724      -0.00000000 NiMoCrFe_S5_021_seed4_T900K_snap_1000      -0.66338700        1        0
Ni     -74.64712211      -0.27080149      -1.76000000 NiMoCrFe_S5_021_seed4_T900K_snap_1000       0.00000000        0        0
Fe     -66.78964916      -0.11163982      -1.76000000 NiMoCrFe_S5_021_seed4_T900K_snap_1000       0.00000000        0        0
Ni     -58.90149148       0.00588812      -1.76000000 NiMoCrFe_S5_021_seed4_T900K_snap_1000       0.00000000        0        0
Ni     -51.04562548       0.02724602      -1.76000000 NiMoCrFe_S5_021_seed4_T900K_snap_1000       0.00000000        0        0
Cr     -43.15946256       0.00949248      -1.76000000 NiMoCrFe_S5_021_seed4_T900K_snap_1000       0.00000000        0        0
Ni     -35.31317933      -0.02869939      -1.76000000 NiMoCrFe_S5_021_seed4_T900K_snap_1000       0.00000000        0        0
Ni     -27.45842622      -0.02913308      -1.76000000 NiMoCrFe_S5_021_seed4_T900K_snap_1000       0.00000000        0        0
Ni     -19.65780892       0.00470865      -1.76000000 NiMoCrFe_S5_021_seed4_T900K_snap_1000       0.00000000        0        0
Ni     -12.03013457       0.01811085      -1.76000000 NiMoCrFe_S5_021_seed4_T900K_snap_1000       0.00000000        0        0
Ni      -4.21997062       0.06804377      -1.76000000 NiMoCrFe_S5_021_seed4_T900K_snap_1000       0.00000000        0        0
Ni     -71.38060466      -1.83369030      -1.76000000 NiMoCrFe_S5_021_seed4_T900K_snap_1000       0.00000000        0        0
Ni     -63.66696360      -1.62261371      -1.76000000 NiMoCrFe_S5_021_seed4_T900K_snap_1000       0.00000000        0        0
Ni     -55.67222668      -1.58673336      -1.76000000 NiMoCrFe_S5_021_seed4_T900K_snap_1000       0.00000000        0        0
Ni     -47.79338911      -1.58533147      -1.76000000 NiMoCrFe_S5_021_seed4_T900K_snap_1000       0.00000000        0        0
Mo     -39.98487777      -1.59451204      -1.76000000 NiMoCrFe_S5_021_seed4_T900K_snap_1000       0.00000000        0        0
Ni     -32.22873717      -1.56894342      -1.76000000 NiMoCrFe_S5_021_seed4_T900K_snap_1000       0.00000000        0        0
Ni     -24.45311111      -1.52948619      -1.76000000 NiMoCrFe_S5_021_seed4_T900K_snap_1000       0.00000000        0        0
Ni     -16.64165577      -1.53671644      -1.76000000 NiMoCrFe_S5_021_seed4_T900K_snap_1000       0.00000000        0        0
Ni      -8.79546490      -1.59706145      -1.76000000 NiMoCrFe_S5_021_seed4_T900K_snap_1000       0.00000000        0        0
Ni      -1.33442323      -1.49469340      -1.76000000 NiMoCrFe_S5_021_seed4_T900K_snap_1000      -0.93836400        1        0
Ni     -76.16413436      -3.51494600      -1.76000000 NiMoCrFe_S5_021_seed4_T900K_snap_1000      -1.05709000        1        0
Ni     -68.31519410      -3.30431686      -1.76000000 NiMoCrFe_S5_021_seed4_T900K_snap_1000       0.00000000        0        0
Ni     -60.43519911      -3.18859760      -1.76000000 NiMoCrFe_S5_021_seed4_T900K_snap_1000       0.00000000        0        0
Cr     -52.55619256      -3.14635193      -1.76000000 NiMoCrFe_S5_021_seed4_T900K_snap_1000       0.00000000        0        0
Ni     -44.68060919      -3.16601131      -1.76000000 NiMoCrFe_S5_021_seed4_T900K_snap_1000       0.00000000        0        0
Cr     -36.82519274      -3.19621279      -1.76000000 NiMoCrFe_S5_021_seed4_T900K_snap_1000       0.00000000        0        0
Ni     -29.01318357      -3.20638655      -1.76000000 NiMoCrFe_S5_021_seed4_T900K_snap_1000       0.00000000        0        0
Ni     -21.24252061      -3.13782396      -1.76000000 NiMoCrFe_S5_021_seed4_T900K_snap_1000       0.00000000        0        0
Ni     -13.60076503      -3.10545832      -1.76000000 NiMoCrFe_S5_021_seed4_T900K_snap_1000       0.00000000        0        0
Ni      -5.77682678      -3.11644515      -1.76000000 NiMoCrFe_S5_021_seed4_T900K_snap_1000       0.00000000        0        0
Mo     -73.00498684      -1.05331073      -0.00000000 NiMoCrFe_S5_021_seed4_T900K_snap_1000       0.00000000        0        0
Ni     -65.25167335      -0.85361445      -0.00000000 NiMoCrFe_S5_021_seed4_T900K_snap_1000       0.00000000        0        0
Ni     -57.32646836      -0.78169375      -0.00000000 NiMoCrFe_S5_021_seed4_T900K_snap_1000       0.00000000        0        0
Ni     -49.44927304      -0.77249857      -0.00000000 NiMoCrFe_S5_021_seed4_T900K_snap_1000       0.00000000        0        0
Ni     -41.60946909      -0.75981379      -0.00000000 NiMoCrFe_S5_021_seed4_T900K_snap_1000       0.00000000        0        0
Ni     -33.77730993      -0.80660671      -0.00000000 NiMoCrFe_S5_021_seed4_T900K_snap_1000       0.00000000        0        0
Ni     -25.95378371      -0.78052138      -0.00000000 NiMoCrFe_S5_021_seed4_T900K_snap_1000       0.00000000        0        0
Ni     -18.15373258      -0.76684487      -0.00000000 NiMoCrFe_S5_021_seed4_T900K_snap_1000       0.00000000        0        0
Ni     -10.38573285      -0.79557037      -0.00000000 NiMoCrFe_S5_021_seed4_T900K_snap_1000       0.00000000        0        0
Ni      -2.70741185      -0.66319178      -0.00000000 NiMoCrFe_S5_021_seed4_T900K_snap_1000      -0.12354700        1        0
Ni     -77.49640802      -2.75869857      -0.00000000 NiMoCrFe_S5_021_seed4_T900K_snap_1000      -0.53847500        1        0
Ni     -69.84769635      -2.56591188      -0.00000000 NiMoCrFe_S5_021_seed4_T900K_snap_1000       0.00000000        0        0
Ni     -62.01332966      -2.41207597      -0.00000000 NiMoCrFe_S5_021_seed4_T900K_snap_1000       0.00000000        0        0
Ni     -54.06955020      -2.38356483      -0.00000000 NiMoCrFe_S5_021_seed4_T900K_snap_1000       0.00000000        0        0
Ni     -46.21888383      -2.38849274      -0.00000000 NiMoCrFe_S5_021_seed4_T900K_snap_1000       0.00000000        0        0
Ni     -38.35783511      -2.43032231      -0.00000000 NiMoCrFe_S5_021_seed4_T900K_snap_1000       0.00000000        0        0
Mo     -30.62244942      -2.38505009      -0.00000000 NiMoCrFe_S5_021_seed4_T900K_snap_1000       0.00000000        0        0
Ni     -22.89693979      -2.32663694      -0.00000000 NiMoCrFe_S5_021_seed4_T900K_snap_1000       0.00000000        0        0
Ni     -15.13507915      -2.32284333      -0.00000000 NiMoCrFe_S5_021_seed4_T900K_snap_1000       0.00000000        0        0
Cr      -7.29415327      -2.35985450      -0.00000000 NiMoCrFe_S5_021_seed4_T900K_snap_1000       0.00000000        0        0
