130
Lattice="0.0 0.0 -3.52 2e-16 -3.9354796403996297 1.7600000000000007 -102.32247065039037 0.0 -6.3e-15" Properties=species:S:1:pos:R:3:frame_label:S:1:Eseg:R:1:probed:I:1:trap:I:1 pbc="T T T"
Mo    -100.68421613      -3.12817769      -0.00000000 NiMoCrFe_S5_021_seed0       0.00000000        0        0
Cr     -92.83912035      -3.15220828      -0.00000000 NiMoCrFe_S5_021_seed0       0.00000000        0        0
Ni     -85.08944627      -3.14675678      -0.00000000 NiMoCrFe_S5_021_seed0       0.00000000        0        0
Ni     -97.49635799      -1.56976201      -0.00000000 NiMoCrFe_S5_021_seed0       0.00000000        0        0
Cr     -89.74084859      -1.57280813      -0.00000000 NiMoCrFe_S5_021_seed0       0.00000000        0        0
Ni     -82.01308271      -1.56713148      -0.00000000 NiMoCrFe_S5_021_seed0       0.00000000        0        0
Ni    -102.32334456      -0.01198342      -0.00000000 NiMoCrFe_S5_021_seed0      -0.39654400        1        0
Ni     -94.38747173      -0.00509226      -0.00000000 NiMoCrFe_S5_021_seed0       0.00000000        0        0
Cr     -86.64459173       0.00509226      -0.00000000 NiMoCrFe_S5_021_seed0       0.00000000        0        0
Ni     -99.01898075      -2.36834816      -1.76000000 NiMoCrFe_S5_021_seed0       0.00000000        0        0
Ni     -91.29121487      -2.36267151      -1.76000000 NiMoCrFe_S5_021_seed0       0.00000000        0        0
Ni     -83.53570547      -2.36571763      -1.76000000 NiMoCrFe_S5_021_seed0       0.00000000        0        0
Ni     -95.94261719      -0.78872286      -1.76000000 NiMoCrFe_S5_021_seed0       0.00000000        0        0
Ni     -88.19294311      -0.78327136      -1.76000000 NiMoCrFe_S5_021_seed0       0.00000000        0        0
Ni     -80.34784733      -0.80730195      -1.76000000 NiMoCrFe_S5_021_seed0      -0.23388700        1        0
Ni     -98.28548225       0.00638148      -1.76000000 NiMoCrFe_S5_021_seed0       0.00000000        0        0
Ni     -90.51603173       0.00000000      -1.76000000 NiMoCrFe_S5_021_seed0       0.00000000        0        0
Ni     -82.74658121      -0.00638148      -1.76000000 NiMoCrFe_S5_021_seed0       0.00000000        0        0
Ni     -95.16397428      -2.36492959      -0.00000000 NiMoCrFe_S5_021_seed0       0.00000000        0        0
Cr     -87.41715697      -2.35689535      -0.00000000 NiMoCrFe_S5_021_seed0       0.00000000        0        0
Ni     -79.80510840      -2.38181110      -0.00000000 NiMoCrFe_S5_021_seed0      -0.38943000        1        0
Ni     -99.83824749      -0.74628196      -0.00000000 NiMoCrFe_S5_021_seed0      -0.25966200        1        0
Ni     -92.06429434      -0.79030318      -0.00000000 NiMoCrFe_S5_021_seed0       0.00000000        0        0
Ni     -84.32128036      -0.78349434      -0.00000000 NiMoCrFe_S5_021_seed0       0.00000000        0        0
Ni     -96.71078310      -3.15198530      -1.76000000 NiMoCrFe_S5_021_seed0       0.00000000        0        0
Ni     -88.96776911      -3.14517646      -1.76000000 NiMoCrFe_S5_021_seed0       0.00000000        0        0
Ni     -81.19381597      -3.18919768      -1.76000000 NiMoCrFe_S5_021_seed0      -0.06796800        1        0
Ni    -101.22695506      -1.55366854      -1.76000000 NiMoCrFe_S5_021_seed0       0.40506200        1        0
Mo     -93.61490649      -1.57858429      -1.76000000 NiMoCrFe_S5_021_seed0       0.00000000        0        0
Ni     -85.86808917      -1.57055005      -1.76000000 NiMoCrFe_S5_021_seed0       0.00000000        0        0
Ni     -77.06870959      -0.80694054      -1.76000000 NiMoCrFe_S5_021_seed0      -0.21271900        1        0
Ni     -69.19580674      -0.77997460      -1.76000000 NiMoCrFe_S5_021_seed0       0.00000000        0        0
Fe     -61.38003842      -0.78579651      -1.76000000 NiMoCrFe_S5_021_seed0       0.00000000        0        0
Ni     -53.52214389      -0.78706552      -1.76000000 NiMoCrFe_S5_021_seed0       0.00000000        0        0
Mo     -45.65156116      -0.78709580      -1.76000000 NiMoCrFe_S5_021_seed0       0.00000000        0        0
Ni     -37.78060477      -0.78709594      -1.76000000 NiMoCrFe_S5_021_seed0       0.00000000        0        0
Ni     -29.90966339      -0.78709706      -1.76000000 NiMoCrFe_S5_021_seed0       0.00000000        0        0
Ni     -22.04074162      -0.78727425      -1.76000000 NiMoCrFe_S5_021_seed0       0.00000000        0        0
Ni     -14.19773857      -0.79019384      -1.76000000 NiMoCrFe_S5_021_seed0       0.00000000        0        0
Ni      -6.39440802      -0.79036345      -1.76000000 NiMoCrFe_S5_021_seed0       0.00000000        0        0
Ni     -73.87450081      -2.36470172      -1.76000000 NiMoCrFe_S5_021_seed0       0.00000000        0        0
Ni     -66.07520422      -2.35684258      -1.76000000 NiMoCrFe_S5_021_seed0       0.00000000        0        0
Ni     -58.24089081      -2.36090943      -1.76000000 NiMoCrFe_S5_021_seed0       0.00000000        0        0
Ni     -50.37408761      -2.36128415      -1.76000000 NiMoCrFe_S5_021_seed0       0.00000000        0        0
Ni     -42.50317956      -2.36128776      -1.76000000 NiMoCrFe_S5_021_seed0       0.00000000        0        0
Ni     -34.63222203      -2.36128784      -1.76000000 NiMoCrFe_S5_021_seed0       0.00000000        0        0
Ni     -26.76140607      -2.36129878      -1.76000000 NiMoCrFe_S5_021_seed0       0.00000000        0        0
Ni     -18.89818089      -2.36202534      -1.76000000 NiMoCrFe_S5_021_seed0       0.00000000        0        0
Ni     -11.07228666      -2.36721621      -1.76000000 NiMoCrFe_S5_021_seed0       0.00000000        0        0
Ni      -3.30869562      -2.36886856      -1.76000000 NiMoCrFe_S5_021_seed0       0.00000000        0        0
Mo     -78.70871890       0.01198342      -0.00000000 NiMoCrFe_S5_021_seed0       0.00000000        0        0
Ni     -70.75281085       0.00748857      -0.00000000 NiMoCrFe_S5_021_seed0       0.00000000        0        0
Ni     -62.94670336       0.00210653      -0.00000000 NiMoCrFe_S5_021_seed0       0.00000000        0        0
Fe     -55.09579383       0.00007700      -0.00000000 NiMoCrFe_S5_021_seed0       0.00000000        0        0
Ni     -47.22574908       0.00000036      -0.00000000 NiMoCrFe_S5_021_seed0       0.00000000        0        0
Ni     -39.35479640       0.00000000      -0.00000000 NiMoCrFe_S5_021_seed0       0.00000000        0        0
Ni     -31.48384373      -0.00000036      -0.00000000 NiMoCrFe_S5_021_seed0       0.00000000        0        0
Mo     -23.61379897      -0.00007700      -0.00000000 NiMoCrFe_S5_021_seed0       0.00000000        0        0
Ni     -15.76288945      -0.00210653      -0.00000000 NiMoCrFe_S5_021_seed0       0.00000000        0        0
Ni      -7.95678196      -0.00748857      -0.00000000 NiMoCrFe_S5_021_seed0       0.00000000        0        0
Ni     -75.40089718      -1.56661108      -0.00000000 NiMoCrFe_S5_021_seed0       0.00000000        0        0
Ni     -67.63730615      -1.56826343      -0.00000000 NiMoCrFe_S5_021_seed0       0.00000000        0        0
Ni     -59.81141192      -1.57345430      -0.00000000 NiMoCrFe_S5_021_seed0       0.00000000        0        0
Ni     -51.94818674      -1.57418086      -0.00000000 NiMoCrFe_S5_021_seed0       0.00000000        0        0
Ni     -44.07737078      -1.57419180      -0.00000000 NiMoCrFe_S5_021_seed0       0.00000000        0        0
Mo     -36.20641324      -1.57419188      -0.00000000 NiMoCrFe_S5_021_seed0       0.00000000        0        0
Cr     -28.33550520      -1.57419549      -0.00000000 NiMoCrFe_S5_021_seed0       0.00000000        0        0
Mo     -20.46870199      -1.57457021      -0.00000000 NiMoCrFe_S5_021_seed0       0.00000000        0        0
Ni     -12.63438859      -1.57863706      -0.00000000 NiMoCrFe_S5_021_seed0       0.00000000        0        0
Ni      -4.83509200      -1.57077792      -0.00000000 NiMoCrFe_S5_021_seed0       0.00000000        0        0
Mo     -72.31518479      -3.14511619      -0.00000000 NiMoCrFe_S5_021_seed0       0.00000000        0        0
Cr     -64.51185424      -3.14528580      -0.00000000 NiMoCrFe_S5_021_seed0       0.00000000        0        0
Ni     -56.66885119      -3.14820539      -0.00000000 NiMoCrFe_S5_021_seed0       0.00000000        0        0
Mo     -48.79992942      -3.14838258      -0.00000000 NiMoCrFe_S5_021_seed0       0.00000000        0        0
Ni     -40.92898804      -3.14838370      -0.00000000 NiMoCrFe_S5_021_seed0       0.00000000        0        0
Mo     -33.05803165      -3.14838384      -0.00000000 NiMoCrFe_S5_021_seed0       0.00000000        0        0
Ni     -25.18744892      -3.14841412      -0.00000000 NiMoCrFe_S5_021_seed0       0.00000000        0        0
Ni     -17.32955438      -3.14968313      -0.00000000 NiMoCrFe_S5_021_seed0       0.00000000        0        0
Ni      -9.51378607      -3.15550504      -0.00000000 NiMoCrFe_S5_021_seed0       0.00000000        0        0
Ni      -1.64088322      -3.12853910      -0.00000000 NiMoCrFe_S5_021_seed0      -0.35646800        1        0
Ni     -74.66571632      -0.00561005      -1.76000000 NiMoCrFe_S5_021_seed0       0.00000000        0        0
Ni     -66.85646447       0.00497554      -1.76000000 NiMoCrFe_S5_021_seed0       0.00000000        0        0
Ni     -59.02637329       0.00053323      -1.76000000 NiMoCrFe_S5_021_seed0       0.00000000        0        0
Fe     -51.16114832       0.00000638      -1.76000000 NiMoCrFe_S5_021_seed0       0.00000000        0        0
Ni     -43.29027523       0.00000004      -1.76000000 NiMoCrFe_S5_021_seed0       0.00000000        0        0
Ni     -35.41931758      -0.00000004      -1.76000000 NiMoCrFe_S5_021_seed0       0.00000000        0        0
Mo     -27.54844449      -0.00000638      -1.76000000 NiMoCrFe_S5_021_seed0       0.00000000        0        0
Cr     -19.68321952      -0.00053323      -1.76000000 NiMoCrFe_S5_021_seed0       0.00000000        0        0
Ni     -11.85312834      -0.00497554      -1.76000000 NiMoCrFe_S5_021_seed0       0.00000000        0        0
Ni      -4.04387649       0.00561005      -1.76000000 NiMoCrFe_S5_021_seed0       0.00000000        0        0
Ni     -71.53308978      -1.56854538      -1.76000000 NiMoCrFe_S5_021_seed0       0.00000000        0        0
Mo     -63.72944384      -1.57161596      -1.76000000 NiMoCrFe_S5_021_seed0       0.00000000        0        0
Ni     -55.88242044      -1.57407356      -1.76000000 NiMoCrFe_S5_021_seed0       0.00000000        0        0
Ni     -48.01284078      -1.57419122      -1.76000000 NiMoCrFe_S5_021_seed0       0.00000000        0        0
Ni     -40.14189223      -1.57419185      -1.76000000 NiMoCrFe_S5_021_seed0       0.00000000        0        0
Ni     -32.27093718      -1.57419207      -1.76000000 NiMoCrFe_S5_021_seed0       0.00000000        0        0
Ni     -24.40057094      -1.57424087      -1.76000000 NiMoCrFe_S5_021_seed0       0.00000000        0        0
Ni     -16.54598334      -1.57587304      -1.76000000 NiMoCrFe_S5_021_seed0       0.00000000        0        0
Ni      -8.73356633      -1.58145705      -1.76000000 NiMoCrFe_S5_021_seed0       0.00000000        0        0
Ni      -1.09856287      -1.55406655      -1.76000000 NiMoCrFe_S5_021_seed0      -0.59173400        1        0
Ni     -76.22147516      -3.18885388      -1.76000000 NiMoCrFe_S5_021_seed0       0.07619400        1        0
Fe     -68.41614100      -3.14135486      -1.76000000 NiMoCrFe_S5_021_seed0       0.00000000        0        0
Ni     -60.59596359      -3.14739015      -1.76000000 NiMoCrFe_S5_021_seed0       0.00000000        0        0
Ni     -52.73519090      -3.14836521      -1.76000000 NiMoCrFe_S5_021_seed0       0.00000000        0        0
Cr     -44.86446613      -3.14838363      -1.76000000 NiMoCrFe_S5_021_seed0       0.00000000        0        0
Ni     -36.99350898      -3.14838373      -1.76000000 NiMoCrFe_S5_021_seed0       0.00000000        0        0
Ni     -29.12257996      -3.14838575      -1.76000000 NiMoCrFe_S5_021_seed0       0.00000000        0        0
Ni     -21.25456414      -3.14864630      -1.76000000 NiMoCrFe_S5_021_seed0       0.00000000        0        0
Ni     -13.41571760      -3.15208440      -1.76000000 NiMoCrFe_S5_021_seed0       0.00000000        0        0
Mo      -5.62315349      -3.15323213      -1.76000000 NiMoCrFe_S5_021_seed0       0.00000000        0        0
Ni     -73.08643932      -0.78224751      -0.00000000 NiMoCrFe_S5_021_seed0       0.00000000        0        0
Ni     -65.29387520      -0.78339524      -0.00000000 NiMoCrFe_S5_021_seed0       0.00000000        0        0
Ni     -57.45502866      -0.78683334      -0.00000000 NiMoCrFe_S5_021_seed0       0.00000000        0        0
Cr     -49.58701285      -0.78709389      -0.00000000 NiMoCrFe_S5_021_seed0       0.00000000        0        0
Fe     -41.71608383      -0.78709591      -0.00000000 NiMoCrFe_S5_021_seed0       0.00000000        0        0
Ni     -33.84512668      -0.78709601      -0.00000000 NiMoCrFe_S5_021_seed0       0.00000000        0        0
Ni     -25.97440190      -0.78711443      -0.00000000 NiMoCrFe_S5_021_seed0       0.00000000        0        0
Ni     -18.11362921      -0.78808949      -0.00000000 NiMoCrFe_S5_021_seed0       0.00000000        0        0
Ni     -10.29345181      -0.79412478      -0.00000000 NiMoCrFe_S5_021_seed0       0.00000000        0        0
Ni      -2.48811765      -0.74662576      -0.00000000 NiMoCrFe_S5_021_seed0      -0.11879300        1        0
Ni     -77.61102994      -2.38141309      -0.00000000 NiMoCrFe_S5_021_seed0      -0.37135400        1        0
Ni     -69.97602648      -2.35402259      -0.00000000 NiMoCrFe_S5_021_seed0       0.00000000        0        0
Ni     -62.16360947      -2.35960660      -0.00000000 NiMoCrFe_S5_021_seed0       0.00000000        0        0
Ni     -54.30902187      -2.36123877      -0.00000000 NiMoCrFe_S5_021_seed0       0.00000000        0        0
Ni     -46.43865562      -2.36128757      -0.00000000 NiMoCrFe_S5_021_seed0       0.00000000        0        0
Ni     -38.56770058      -2.36128779      -0.00000000 NiMoCrFe_S5_021_seed0       0.00000000        0        0
Ni     -30.69675203      -2.36128842      -0.00000000 NiMoCrFe_S5_021_seed0       0.00000000        0        0
Ni     -22.82717237      -2.36140608      -0.00000000 NiMoCrFe_S5_021_seed0       0.00000000        0        0
Ni     -14.98014897      -2.36386368      -0.00000000 NiMoCrFe_S5_021_seed0       0.00000000        0        0
Cr      -7.17650302      -2.36693426      -0.00000000 NiMoCrFe_S5_021_seed0       0.00000000        0        0
130
Lattice="0.0 0.0 -3.52 2e-16 -3.9354796403996297 1.7600000000000007 -102.32247065039037 0.0 -6.3e-15" Properties=species:S:1:pos:R:3:frame_label:S:1:Eseg:R:1:probed:I:1:trap:I:1 pbc="T T T"
Ni    -100.68421613      -3.12817769      -0.00000000 NiMoCrFe_S5_021_seed1       0.78674500        1        0
Ni     -92.83912035      -3.15220828      -0.00000000 NiMoCrFe_S5_021_seed1       0.00000000        0        0
Ni     -85.08944627      -3.14675678      -0.00000000 NiMoCrFe_S5_021_seed1       0.00000000        0        0
Cr     -97.49635799      -1.56976201      -0.00000000 NiMoCrFe_S5_021_seed1       0.00000000        0        0
Ni     -89.74084859      -1.57280813      -0.00000000 NiMoCrFe_S5_021_seed1       0.00000000        0        0
Ni     -82.01308271      -1.56713148      -0.00000000 NiMoCrFe_S5_021_seed1       0.00000000        0        0
Ni    -102.32334456      -0.01198342      -0.00000000 NiMoCrFe_S5_021_seed1       0.59367100        1        0
Ni     -94.38747173      -0.00509226      -0.00000000 NiMoCrFe_S5_021_seed1       0.00000000        0        0
Ni     -86.64459173       0.00509226      -0.00000000 NiMoCrFe_S5_021_seed1       0.00000000        0        0
Ni     -99.01898075      -2.36834816      -1.76000000 NiMoCrFe_S5_021_seed1       0.00000000        0        0
Cr     -91.29121487      -2.36267151      -1.76000000 NiMoCrFe_S5_021_seed1       0.00000000        0        0
Ni     -83.53570547      -2.36571763      -1.76000000 NiMoCrFe_S5_021_seed1       0.00000000        0        0
Ni     -95.94261719      -0.78872286      -1.76000000 NiMoCrFe_S5_021_seed1       0.00000000        0        0
Ni     -88.19294311      -0.78327136      -1.76000000 NiMoCrFe_S5_021_seed1       0.00000000        0        0
Ni     -80.34784733      -0.80730195      -1.76000000 NiMoCrFe_S5_021_seed1      -0.19421900        1        0
Mo     -98.28548225       0.00638148      -1.76000000 NiMoCrFe_S5_021_seed1       0.00000000        0        0
Ni     -90.51603173       0.00000000      -1.76000000 NiMoCrFe_S5_021_seed1       0.00000000        0        0
Ni     -82.74658121      -0.00638148      -1.76000000 NiMoCrFe_S5_021_seed1       0.00000000        0        0
Ni     -95.16397428      -2.36492959      -0.00000000 NiMoCrFe_S5_021_seed1       0.00000000        0        0
Ni     -87.41715697      -2.35689535      -0.00000000 NiMoCrFe_S5_021_seed1       0.00000000        0        0
Ni     -79.80510840      -2.38181110      -0.00000000 NiMoCrFe_S5_021_seed1      -0.25929600        1        0
Ni     -99.83824749      -0.74628196      -0.00000000 NiMoCrFe_S5_021_seed1       1.08487000        1        0
Ni     -92.06429434      -0.79030318      -0.00000000 NiMoCrFe_S5_021_seed1       0.00000000        0        0
Ni     -84.32128036      -0.78349434      -0.00000000 NiMoCrFe_S5_021_seed1       0.00000000        0        0
Ni     -96.71078310      -3.15198530      -1.76000000 NiMoCrFe_S5_021_seed1       0.00000000        0        0
Ni     -88.96776911      -3.14517646      -1.76000000 NiMoCrFe_S5_021_seed1       0.00000000        0        0
Ni     -81.19381597      -3.18919768      -1.76000000 NiMoCrFe_S5_021_seed1      -0.12990100        1        0
Fe    -101.22695506      -1.55366854      -1.76000000 NiMoCrFe_S5_021_seed1       0.00000000        0        0
Ni     -93.61490649      -1.57858429      -1.76000000 NiMoCrFe_S5_021_seed1       0.00000000        0        0
Ni     -85.86808917      -1.57055005      -1.76000000 NiMoCrFe_S5_021_seed1       0.00000000        0        0
Mo     -77.06870959      -0.80694054      -1.76000000 NiMoCrFe_S5_021_seed1       0.00000000        0        0
Mo     -69.19580674      -0.77997460      -1.76000000 NiMoCrFe_S5_021_seed1       0.00000000        0        0
Ni     -61.38003842      -0.78579651      -1.76000000 NiMoCrFe_S5_021_seed1       0.00000000        0        0
Ni     -53.52214389      -0.78706552      -1.76000000 NiMoCrFe_S5_021_seed1       0.00000000        0        0
Cr     -45.65156116      -0.78709580      -1.76000000 NiMoCrFe_S5_021_seed1       0.00000000        0        0
Ni     -37.78060477      -0.78709594      -1.76000000 NiMoCrFe_S5_021_seed1       0.00000000        0        0
Ni     -29.90966339      -0.78709706      -1.76000000 NiMoCrFe_S5_021_seed1       0.00000000        0        0
Ni     -22.04074162      -0.78727425      -1.76000000 NiMoCrFe_S5_021_seed1       0.00000000        0        0
Ni     -14.19773857      -0.79019384      -1.76000000 NiMoCrFe_S5_021_seed1       0.00000000        0        0
Ni      -6.39440802      -0.79036345      -1.76000000 NiMoCrFe_S5_021_seed1       0.00000000        0        0
Ni     -73.87450081      -2.36470172      -1.76000000 NiMoCrFe_S5_021_seed1       0.00000000        0        0
Ni     -66.07520422      -2.35684258      -1.76000000 NiMoCrFe_S5_021_seed1       0.00000000        0        0
Cr     -58.24089081      -2.36090943      -1.76000000 NiMoCrFe_S5_021_seed1       0.00000000        0        0
Ni     -50.37408761      -2.36128415      -1.76000000 NiMoCrFe_S5_021_seed1       0.00000000        0        0
Ni     -42.50317956      -2.36128776      -1.76000000 NiMoCrFe_S5_021_seed1       0.00000000        0        0
Ni     -34.63222203      -2.36128784      -1.76000000 NiMoCrFe_S5_021_seed1       0.00000000        0        0
Ni     -26.76140607      -2.36129878      -1.76000000 NiMoCrFe_S5_021_seed1       0.00000000        0        0
Ni     -18.89818089      -2.36202534      -1.76000000 NiMoCrFe_S5_021_seed1       0.00000000        0        0
Cr     -11.07228666      -2.36721621      -1.76000000 NiMoCrFe_S5_021_seed1       0.00000000        0        0
Ni      -3.30869562      -2.36886856      -1.76000000 NiMoCrFe_S5_021_seed1       0.00000000        0        0
Ni     -78.70871890       0.01198342      -0.00000000 NiMoCrFe_S5_021_seed1      -0.04025900        1        0
Ni     -70.75281085       0.00748857      -0.00000000 NiMoCrFe_S5_021_seed1       0.00000000        0        0
Ni     -62.94670336       0.00210653      -0.00000000 NiMoCrFe_S5_021_seed1       0.00000000        0        0
Mo     -55.09579383       0.00007700      -0.00000000 NiMoCrFe_S5_021_seed1       0.00000000        0        0
Ni     -47.22574908       0.00000036      -0.00000000 NiMoCrFe_S5_021_seed1       0.00000000        0        0
Ni     -39.35479640       0.00000000      -0.00000000 NiMoCrFe_S5_021_seed1       0.00000000        0        0
Ni     -31.48384373      -0.00000036      -0.00000000 NiMoCrFe_S5_021_seed1       0.00000000        0        0
Ni     -23.61379897      -0.00007700      -0.00000000 NiMoCrFe_S5_021_seed1       0.00000000        0        0
Cr     -15.76288945      -0.00210653      -0.00000000 NiMoCrFe_S5_021_seed1       0.00000000        0        0
Ni      -7.95678196      -0.00748857      -0.00000000 NiMoCrFe_S5_021_seed1       0.00000000        0        0
Ni     -75.40089718      -1.56661108      -0.00000000 NiMoCrFe_S5_021_seed1       0.00000000        0        0
Ni     -67.63730615      -1.56826343      -0.00000000 NiMoCrFe_S5_021_seed1       0.00000000        0        0
Ni     -59.81141192      -1.57345430      -0.00000000 NiMoCrFe_S5_021_seed1       0.00000000        0        0
Ni     -51.94818674      -1.57418086      -0.00000000 NiMoCrFe_S5_021_seed1       0.00000000        0        0
Ni     -44.07737078      -1.57419180      -0.00000000 NiMoCrFe_S5_021_seed1       0.00000000        0        0
Mo     -36.20641324      -1.57419188      -0.00000000 NiMoCrFe_S5_021_seed1       0.00000000        0        0
Ni     -28.33550520      -1.57419549      -0.00000000 NiMoCrFe_S5_021_seed1       0.00000000        0        0
Fe     -20.46870199      -1.57457021      -0.00000000 NiMoCrFe_S5_021_seed1       0.00000000        0        0
Ni     -12.63438859      -1.57863706      -0.00000000 NiMoCrFe_S5_021_seed1       0.00000000        0        0
Ni      -4.83509200      -1.57077792      -0.00000000 NiMoCrFe_S5_021_seed1       0.00000000        0        0
Ni     -72.31518479      -3.14511619      -0.00000000 NiMoCrFe_S5_021_seed1       0.00000000        0        0
Ni     -64.51185424      -3.14528580      -0.00000000 NiMoCrFe_S5_021_seed1       0.00000000        0        0
Ni     -56.66885119      -3.14820539      -0.00000000 NiMoCrFe_S5_021_seed1       0.00000000        0        0
Ni     -48.79992942      -3.14838258      -0.00000000 NiMoCrFe_S5_021_seed1       0.00000000        0        0
Ni     -40.92898804      -3.14838370      -0.00000000 NiMoCrFe_S5_021_seed1       0.00000000        0        0
Ni     -33.05803165      -3.14838384      -0.00000000 NiMoCrFe_S5_021_seed1       0.00000000        0        0
Mo     -25.18744892      -3.14841412      -0.00000000 NiMoCrFe_S5_021_seed1       0.00000000        0        0
Ni     -17.32955438      -3.14968313      -0.00000000 NiMoCrFe_S5_021_seed1       0.00000000        0        0
Ni      -9.51378607      -3.15550504      -0.00000000 NiMoCrFe_S5_021_seed1       0.00000000        0        0
Mo      -1.64088322      -3.12853910      -0.00000000 NiMoCrFe_S5_021_seed1       0.00000000        0        0
Ni     -74.66571632      -0.00561005      -1.76000000 NiMoCrFe_S5_021_seed1       0.00000000        0        0
Ni     -66.85646447       0.00497554      -1.76000000 NiMoCrFe_S5_021_seed1       0.00000000        0        0
Ni     -59.02637329       0.00053323      -1.76000000 NiMoCrFe_S5_021_seed1       0.00000000        0        0
Ni     -51.16114832       0.00000638      -1.76000000 NiMoCrFe_S5_021_seed1       0.00000000        0        0
Ni     -43.29027523       0.00000004      -1.76000000 NiMoCrFe_S5_021_seed1       0.00000000        0        0
Ni     -35.41931758      -0.00000004      -1.76000000 NiMoCrFe_S5_021_seed1       0.00000000        0        0
Ni     -27.54844449      -0.00000638      -1.76000000 NiMoCrFe_S5_021_seed1       0.00000000        0        0
Ni     -19.68321952      -0.00053323      -1.76000000 NiMoCrFe_S5_021_seed1       0.00000000        0        0
Ni     -11.85312834      -0.00497554      -1.76000000 NiMoCrFe_S5_021_seed1       0.00000000        0        0
Mo      -4.04387649       0.00561005      -1.76000000 NiMoCrFe_S5_021_seed1       0.00000000        0        0
Ni     -71.53308978      -1.56854538      -1.76000000 NiMoCrFe_S5_021_seed1       0.00000000        0        0
Ni     -63.72944384      -1.57161596      -1.76000000 NiMoCrFe_S5_021_seed1       0.00000000        0        0
Ni     -55.88242044      -1.57407356      -1.76000000 NiMoCrFe_S5_021_seed1       0.00000000        0        0
Cr     -48.01284078      -1.57419122      -1.76000000 NiMoCrFe_S5_021_seed1       0.00000000        0        0
Ni     -40.14189223      -1.57419185      -1.76000000 NiMoCrFe_S5_021_seed1       0.00000000        0        0
Ni     -32.27093718      -1.57419207      -1.76000000 NiMoCrFe_S5_021_seed1       0.00000000        0        0
Mo     -24.40057094      -1.57424087      -1.76000000 NiMoCrFe_S5_021_seed1       0.00000000        0        0
Ni     -16.54598334      -1.57587304      -1.76000000 NiMoCrFe_S5_021_seed1       0.00000000        0        0
Mo      -8.73356633      -1.58145705      -1.76000000 NiMoCrFe_S5_021_seed1       0.00000000        0        0
Ni      -1.09856287      -1.55406655      -1.76000000 NiMoCrFe_S5_021_seed1       1.02692700        1        0
Fe     -76.22147516      -3.18885388      -1.76000000 NiMoCrFe_S5_021_seed1       0.00000000        0        0
Ni     -68.41614100      -3.14135486      -1.76000000 NiMoCrFe_S5_021_seed1       0.00000000        0        0
Fe     -60.59596359      -3.14739015      -1.76000000 NiMoCrFe_S5_021_seed1       0.00000000        0        0
Cr     -52.73519090      -3.14836521      -1.76000000 NiMoCrFe_S5_021_seed1       0.00000000        0        0
Mo     -44.86446613      -3.14838363      -1.76000000 NiMoCrFe_S5_021_seed1       0.00000000        0        0
Ni     -36.99350898      -3.14838373      -1.76000000 NiMoCrFe_S5_021_seed1       0.00000000        0        0
Mo     -29.12257996      -3.14838575      -1.76000000 NiMoCrFe_S5_021_seed1       0.00000000        0        0
Ni     -21.25456414      -3.14864630      -1.76000000 NiMoCrFe_S5_021_seed1       0.00000000        0        0
Ni     -13.41571760      -3.15208440      -1.76000000 NiMoCrFe_S5_021_seed1       0.00000000        0        0
Ni      -5.62315349      -3.15323213      -1.76000000 NiMoCrFe_S5_021_seed1       0.00000000        0        0
Ni     -73.08643932      -0.78224751      -0.00000000 NiMoCrFe_S5_021_seed1       0.00000000        0        0
Ni     -65.29387520      -0.78339524      -0.00000000 NiMoCrFe_S5_021_seed1       0.00000000        0        0
Ni     -57.45502866      -0.78683334      -0.00000000 NiMoCrFe_S5_021_seed1       0.00000000        0        0
Fe     -49.58701285      -0.78709389      -0.00000000 NiMoCrFe_S5_021_seed1       0.00000000        0        0
Ni     -41.71608383      -0.78709591      -0.00000000 NiMoCrFe_S5_021_seed1       0.00000000        0        0
Ni     -33.84512668      -0.78709601      -0.00000000 NiMoCrFe_S5_021_seed1       0.00000000        0        0
Ni     -25.97440190      -0.78711443      -0.00000000 NiMoCrFe_S5_021_seed1       0.00000000        0        0
Cr     -18.11362921      -0.78808949      -0.00000000 NiMoCrFe_S5_021_seed1       0.00000000        0        0
Ni     -10.29345181      -0.79412478      -0.00000000 NiMoCrFe_S5_021_seed1       0.00000000        0        0
Ni      -2.48811765      -0.74662576      -0.00000000 NiMoCrFe_S5_021_seed1       0.86943100        1        0
Ni     -77.61102994      -2.38141309      -0.00000000 NiMoCrFe_S5_021_seed1       0.80008200        1        0
Mo     -69.97602648      -2.35402259      -0.00000000 NiMoCrFe_S5_021_seed1       0.00000000        0        0
Ni     -62.16360947      -2.35960660      -0.00000000 NiMoCrFe_S5_021_seed1       0.00000000        0        0
Ni     -54.30902187      -2.36123877      -0.00000000 NiMoCrFe_S5_021_seed1       0.00000000        0        0
Cr     -46.43865562      -2.36128757      -0.00000000 NiMoCrFe_S5_021_seed1       0.00000000        0        0
Ni     -38.56770058      -2.36128779      -0.00000000 NiMoCrFe_S5_021_seed1       0.00000000        0        0
Ni     -30.69675203      -2.36128842      -0.00000000 NiMoCrFe_S5_021_seed1       0.00000000        0        0
Ni     -22.82717237      -2.36140608      -0.00000000 NiMoCrFe_S5_021_seed1       0.00000000        0        0
Ni     -14.98014897      -2.36386368      -0.00000000 NiMoCrFe_S5_021_seed1       0.00000000        0        0
Ni      -7.17650302      -2.36693426      -0.00000000 NiMoCrFe_S5_021_seed1       0.00000000        0        0
130
Lattice="0.0 0.0 -3.52 2e-16 -3.9354796403996297 1.7600000000000007 -102.32247065039037 0.0 -6.3e-15" Properties=species:S:1:pos:R:3:frame_label:S:1:Eseg:R:1:probed:I:1:trap:I:1 pbc="T T T"
Ni    -100.68421613      -3.12817769      -0.00000000 NiMoCrFe_S5_021_seed2       0.35101800        1        0
Ni     -92.83912035      -3.15220828      -0.00000000 NiMoCrFe_S5_021_seed2       0.00000000        0        0
Ni     -85.08944627      -3.14675678      -0.00000000 NiMoCrFe_S5_021_seed2       0.00000000        0        0
Ni     -97.49635799      -1.56976201      -0.00000000 NiMoCrFe_S5_021_seed2       0.00000000        0        0
Ni     -89.74084859      -1.57280813      -0.00000000 NiMoCrFe_S5_021_seed2       0.00000000        0        0
Ni     -82.01308271      -1.56713148      -0.00000000 NiMoCrFe_S5_021_seed2       0.00000000        0        0
Fe    -102.32334456      -0.01198342      -0.00000000 NiMoCrFe_S5_021_seed2       0.00000000        0        0
Ni     -94.38747173      -0.00509226      -0.00000000 NiMoCrFe_S5_021_seed2       0.00000000        0        0
Ni     -86.64459173       0.00509226      -0.00000000 NiMoCrFe_S5_021_seed2       0.00000000        0        0
Ni     -99.01898075      -2.36834816      -1.76000000 NiMoCrFe_S5_021_seed2       0.00000000        0        0
Cr     -91.29121487      -2.36267151      -1.76000000 NiMoCrFe_S5_021_seed2       0.00000000        0        0
Mo     -83.53570547      -2.36571763      -1.76000000 NiMoCrFe_S5_021_seed2       0.00000000        0        0
Ni     -95.94261719      -0.78872286      -1.76000000 NiMoCrFe_S5_021_seed2       0.00000000        0        0
Ni     -88.19294311      -0.78327136      -1.76000000 NiMoCrFe_S5_021_seed2       0.00000000        0        0
Ni     -80.34784733      -0.80730195      -1.76000000 NiMoCrFe_S5_021_seed2      -1.84537400        1        1
Ni     -98.28548225       0.00638148      -1.76000000 NiMoCrFe_S5_021_seed2       0.00000000        0        0
Ni     -90.51603173       0.00000000      -1.76000000 NiMoCrFe_S5_021_seed2       0.00000000        0        0
Ni     -82.74658121      -0.00638148      -1.76000000 NiMoCrFe_S5_021_seed2       0.00000000        0        0
Cr     -95.16397428      -2.36492959      -0.00000000 NiMoCrFe_S5_021_seed2       0.00000000        0        0
Ni     -87.41715697      -2.35689535      -0.00000000 NiMoCrFe_S5_021_seed2       0.00000000        0        0
Ni     -79.80510840      -2.38181110      -0.00000000 NiMoCrFe_S5_021_seed2      -2.29265300        1        1
Mo     -99.83824749      -0.74628196      -0.00000000 NiMoCrFe_S5_021_seed2       0.00000000        0        0
Ni     -92.06429434      -0.79030318      -0.00000000 NiMoCrFe_S5_021_seed2       0.00000000        0        0
Ni     -84.32128036      -0.78349434      -0.00000000 NiMoCrFe_S5_021_seed2       0.00000000        0        0
Mo     -96.71078310      -3.15198530      -1.76000000 NiMoCrFe_S5_021_seed2       0.00000000        0        0
Ni     -88.96776911      -3.14517646      -1.76000000 NiMoCrFe_S5_021_seed2       0.00000000        0        0
Ni     -81.19381597      -3.18919768      -1.76000000 NiMoCrFe_S5_021_seed2      -1.27561400        1        0
Mo    -101.22695506      -1.55366854      -1.76000000 NiMoCrFe_S5_021_seed2       0.00000000        0        0
Ni     -93.61490649      -1.57858429      -1.76000000 NiMoCrFe_S5_021_seed2       0.00000000        0        0
Ni     -85.86808917      -1.57055005      -1.76000000 NiMoCrFe_S5_021_seed2       0.00000000        0        0
Ni     -77.06870959      -0.80694054      -1.76000000 NiMoCrFe_S5_021_seed2      -1.77618800        1        1
Cr     -69.19580674      -0.77997460      -1.76000000 NiMoCrFe_S5_021_seed2       0.00000000        0        0
Mo     -61.38003842      -0.78579651      -1.76000000 NiMoCrFe_S5_021_seed2       0.00000000        0        0
Ni     -53.52214389      -0.78706552      -1.76000000 NiMoCrFe_S5_021_seed2       0.00000000        0        0
Ni     -45.65156116      -0.78709580      -1.76000000 NiMoCrFe_S5_021_seed2       0.00000000        0        0
Ni     -37.78060477      -0.78709594      -1.76000000 NiMoCrFe_S5_021_seed2       0.00000000        0        0
Ni     -29.90966339      -0.78709706      -1.76000000 NiMoCrFe_S5_021_seed2       0.00000000        0        0
Cr     -22.04074162      -0.78727425      -1.76000000 NiMoCrFe_S5_021_seed2       0.00000000        0        0
Ni     -14.19773857      -0.79019384      -1.76000000 NiMoCrFe_S5_021_seed2       0.00000000        0        0
Ni      -6.39440802      -0.79036345      -1.76000000 NiMoCrFe_S5_021_seed2       0.00000000        0        0
Ni     -73.87450081      -2.36470172      -1.76000000 NiMoCrFe_S5_021_seed2       0.00000000        0        0
Ni     -66.07520422      -2.35684258      -1.76000000 NiMoCrFe_S5_021_seed2       0.00000000        0        0
Ni     -58.24089081      -2.36090943      -1.76000000 NiMoCrFe_S5_021_seed2       0.00000000        0        0
Ni     -50.37408761      -2.36128415      -1.76000000 NiMoCrFe_S5_021_seed2       0.00000000        0        0
Mo     -42.50317956      -2.36128776      -1.76000000 NiMoCrFe_S5_021_seed2       0.00000000        0        0
Ni     -34.63222203      -2.36128784      -1.76000000 NiMoCrFe_S5_021_seed2       0.00000000        0        0
Ni     -26.76140607      -2.36129878      -1.76000000 NiMoCrFe_S5_021_seed2       0.00000000        0        0
Ni     -18.89818089      -2.36202534      -1.76000000 NiMoCrFe_S5_021_seed2       0.00000000        0        0
Ni     -11.07228666      -2.36721621      -1.76000000 NiMoCrFe_S5_021_seed2       0.00000000        0        0
Mo      -3.30869562      -2.36886856      -1.76000000 NiMoCrFe_S5_021_seed2       0.00000000        0        0
Ni     -78.70871890       0.01198342      -0.00000000 NiMoCrFe_S5_021_seed2      -2.54223600        1        1
Ni     -70.75281085       0.00748857      -0.00000000 NiMoCrFe_S5_021_seed2       0.00000000        0        0
Ni     -62.94670336       0.00210653      -0.00000000 NiMoCrFe_S5_021_seed2       0.00000000        0        0
Ni     -55.09579383       0.00007700      -0.00000000 NiMoCrFe_S5_021_seed2       0.00000000        0        0
Ni     -47.22574908       0.00000036      -0.00000000 NiMoCrFe_S5_021_seed2       0.00000000        0        0
Cr     -39.35479640       0.00000000      -0.00000000 NiMoCrFe_S5_021_seed2       0.00000000        0        0
Ni     -31.48384373      -0.00000036      -0.00000000 NiMoCrFe_S5_021_seed2       0.00000000        0        0
Ni     -23.61379897      -0.00007700      -0.00000000 NiMoCrFe_S5_021_seed2       0.00000000        0        0
Ni     -15.76288945      -0.00210653      -0.00000000 NiMoCrFe_S5_021_seed2       0.00000000        0        0
Ni      -7.95678196      -0.00748857      -0.00000000 NiMoCrFe_S5_021_seed2       0.00000000        0        0
Ni     -75.40089718      -1.56661108      -0.00000000 NiMoCrFe_S5_021_seed2       0.00000000        0        0
Ni     -67.63730615      -1.56826343      -0.00000000 NiMoCrFe_S5_021_seed2       0.00000000        0        0
Ni     -59.81141192      -1.57345430      -0.00000000 NiMoCrFe_S5_021_seed2       0.00000000        0        0
Ni     -51.94818674      -1.57418086      -0.00000000 NiMoCrFe_S5_021_seed2       0.00000000        0        0
Ni     -44.07737078      -1.57419180      -0.00000000 NiMoCrFe_S5_021_seed2       0.00000000        0        0
Ni     -36.20641324      -1.57419188      -0.00000000 NiMoCrFe_S5_021_seed2       0.00000000        0        0
Mo     -28.33550520      -1.57419549      -0.00000000 NiMoCrFe_S5_021_seed2       0.00000000        0        0
Mo     -20.46870199      -1.57457021      -0.00000000 NiMoCrFe_S5_021_seed2       0.00000000        0        0
Ni     -12.63438859      -1.57863706      -0.00000000 NiMoCrFe_S5_021_seed2       0.00000000        0        0
Cr      -4.83509200      -1.57077792      -0.00000000 NiMoCrFe_S5_021_seed2       0.00000000        0        0
Ni     -72.31518479      -3.14511619      -0.00000000 NiMoCrFe_S5_021_seed2       0.00000000        0        0
Ni     -64.51185424      -3.14528580      -0.00000000 NiMoCrFe_S5_021_seed2       0.00000000        0        0
Ni     -56.66885119      -3.14820539      -0.00000000 NiMoCrFe_S5_021_seed2       0.00000000        0        0
Ni     -48.79992942      -3.14838258      -0.00000000 NiMoCrFe_S5_021_seed2       0.00000000        0        0
Ni     -40.92898804      -3.14838370      -0.00000000 NiMoCrFe_S5_021_seed2       0.00000000        0        0
Ni     -33.05803165      -3.14838384      -0.00000000 NiMoCrFe_S5_021_seed2       0.00000000        0        0
Ni     -25.18744892      -3.14841412      -0.00000000 NiMoCrFe_S5_021_seed2       0.00000000        0        0
Ni     -17.32955438      -3.14968313      -0.00000000 NiMoCrFe_S5_021_seed2       0.00000000        0        0
Ni      -9.51378607      -3.15550504      -0.00000000 NiMoCrFe_S5_021_seed2       0.00000000        0        0
Ni      -1.64088322      -3.12853910      -0.00000000 NiMoCrFe_S5_021_seed2      -0.57541500        1        0
Cr     -74.66571632      -0.00561005      -1.76000000 NiMoCrFe_S5_021_seed2       0.00000000        0        0
Ni     -66.85646447       0.00497554      -1.76000000 NiMoCrFe_S5_021_seed2       0.00000000        0        0
Ni     -59.02637329       0.00053323      -1.76000000 NiMoCrFe_S5_021_seed2       0.00000000        0        0
Fe     -51.16114832       0.00000638      -1.76000000 NiMoCrFe_S5_021_seed2       0.00000000        0        0
Ni     -43.29027523       0.00000004      -1.76000000 NiMoCrFe_S5_021_seed2       0.00000000        0        0
Ni     -35.41931758      -0.00000004      -1.76000000 NiMoCrFe_S5_021_seed2       0.00000000        0        0
Cr     -27.54844449      -0.00000638      -1.76000000 NiMoCrFe_S5_021_seed2       0.00000000        0        0
Fe     -19.68321952      -0.00053323      -1.76000000 NiMoCrFe_S5_021_seed2       0.00000000        0        0
Ni     -11.85312834      -0.00497554      -1.76000000 NiMoCrFe_S5_021_seed2       0.00000000        0        0
Ni      -4.04387649       0.00561005      -1.76000000 NiMoCrFe_S5_021_seed2       0.00000000        0        0
Ni     -71.53308978      -1.56854538      -1.76000000 NiMoCrFe_S5_021_seed2       0.00000000        0        0
Mo     -63.72944384      -1.57161596      -1.76000000 NiMoCrFe_S5_021_seed2       0.00000000        0        0
Ni     -55.88242044      -1.57407356      -1.76000000 NiMoCrFe_S5_021_seed2       0.00000000        0        0
Ni     -48.01284078      -1.57419122      -1.76000000 NiMoCrFe_S5_021_seed2       0.00000000        0        0
Ni     -40.14189223      -1.57419185      -1.76000000 NiMoCrFe_S5_021_seed2       0.00000000        0        0
Cr     -32.27093718      -1.57419207      -1.76000000 NiMoCrFe_S5_021_seed2       0.00000000        0        0
Ni     -24.40057094      -1.57424087      -1.76000000 NiMoCrFe_S5_021_seed2       0.00000000        0        0
Ni     -16.54598334      -1.57587304      -1.76000000 NiMoCrFe_S5_021_seed2       0.00000000        0        0
Ni      -8.73356633      -1.58145705      -1.76000000 NiMoCrFe_S5_021_seed2       0.00000000        0        0
Ni      -1.09856287      -1.55406655      -1.76000000 NiMoCrFe_S5_021_seed2      -0.24026600        1        0
Ni     -76.22147516      -3.18885388      -1.76000000 NiMoCrFe_S5_021_seed2      -1.03284700        1        0
Ni     -68.41614100      -3.14135486      -1.76000000 NiMoCrFe_S5_021_seed2       0.00000000        0        0
Cr     -60.59596359      -3.14739015      -1.76000000 NiMoCrFe_S5_021_seed2       0.00000000        0        0
Ni     -52.73519090      -3.14836521      -1.76000000 NiMoCrFe_S5_021_seed2       0.00000000        0        0
Ni     -44.86446613      -3.14838363      -1.76000000 NiMoCrFe_S5_021_seed2       0.00000000        0        0
Ni     -36.99350898      -3.14838373      -1.76000000 NiMoCrFe_S5_021_seed2       0.00000000        0        0
Ni     -29.12257996      -3.14838575      -1.76000000 NiMoCrFe_S5_021_seed2       0.00000000        0        0
Ni     -21.25456414      -3.14864630      -1.76000000 NiMoCrFe_S5_021_seed2       0.00000000        0        0
Ni     -13.41571760      -3.15208440      -1.76000000 NiMoCrFe_S5_021_seed2       0.00000000        0        0
Ni      -5.62315349      -3.15323213      -1.76000000 NiMoCrFe_S5_021_seed2       0.00000000        0        0
Ni     -73.08643932      -0.78224751      -0.00000000 NiMoCrFe_S5_021_seed2       0.00000000        0        0
Ni     -65.29387520      -0.78339524      -0.00000000 NiMoCrFe_S5_021_seed2       0.00000000        0        0
Ni     -57.45502866      -0.78683334      -0.00000000 NiMoCrFe_S5_021_seed2       0.00000000        0        0
Ni     -49.58701285      -0.78709389      -0.00000000 NiMoCrFe_S5_021_seed2       0.00000000        0        0
Mo     -41.71608383      -0.78709591      -0.00000000 NiMoCrFe_S5_021_seed2       0.00000000        0        0
Ni     -33.84512668      -0.78709601      -0.00000000 NiMoCrFe_S5_021_seed2       0.00000000        0        0
Ni     -25.97440190      -0.78711443      -0.00000000 NiMoCrFe_S5_021_seed2       0.00000000        0        0
Ni     -18.11362921      -0.78808949      -0.00000000 NiMoCrFe_S5_021_seed2       0.00000000        0        0
Ni     -10.29345181      -0.79412478      -0.00000000 NiMoCrFe_S5_021_seed2       0.00000000        0        0
Ni      -2.48811765      -0.74662576      -0.00000000 NiMoCrFe_S5_021_seed2      -0.98978600        1        0
Ni     -77.61102994      -2.38141309      -0.00000000 NiMoCrFe_S5_021_seed2      -2.23183800        1        1
Ni     -69.97602648      -2.35402259      -0.00000000 NiMoCrFe_S5_021_seed2       0.00000000        0        0
Mo     -62.16360947      -2.35960660      -0.00000000 NiMoCrFe_S5_021_seed2       0.00000000        0        0
Ni     -54.30902187      -2.36123877      -0.00000000 NiMoCrFe_S5_021_seed2       0.00000000        0        0
Fe     -46.43865562      -2.36128757      -0.00000000 NiMoCrFe_S5_021_seed2       0.00000000        0        0
Ni     -38.56770058      -2.36128779      -0.00000000 NiMoCrFe_S5_021_seed2       0.00000000        0        0
Ni     -30.69675203      -2.36128842      -0.00000000 NiMoCrFe_S5_021_seed2       0.00000000        0        0
Ni     -22.82717237      -2.36140608      -0.00000000 NiMoCrFe_S5_021_seed2       0.00000000        0        0
Fe     -14.98014897      -2.36386368      -0.00000000 NiMoCrFe_S5_021_seed2       0.00000000        0        0
Mo      -7.17650302      -2.36693426      -0.00000000 NiMoCrFe_S5_021_seed2       0.00000000        0        0
130
Lattice="0.0 0.0 -3.52 2e-16 -3.9354796403996297 1.7600000000000007 -102.32247065039037 0.0 -6.3e-15" Properties=species:S:1:pos:R:3:frame_label:S:1:Eseg:R:1:probed:I:1:trap:I:1 pbc="T T T"
Ni    -100.68421613      -3.12817769      -0.00000000 NiMoCrFe_S5_021_seed3      -1.49999700        1        0
Ni     -92.83912035      -3.15220828      -0.00000000 NiMoCrFe_S5_021_seed3       0.00000000        0        0
Ni     -85.08944627      -3.14675678      -0.00000000 NiMoCrFe_S5_021_seed3       0.00000000        0        0
Fe     -97.49635799      -1.56976201      -0.00000000 NiMoCrFe_S5_021_seed3       0.00000000        0        0
Mo     -89.74084859      -1.57280813      -0.00000000 NiMoCrFe_S5_021_seed3       0.00000000        0        0
Ni     -82.01308271      -1.56713148      -0.00000000 NiMoCrFe_S5_021_seed3       0.00000000        0        0
Ni    -102.32334456      -0.01198342      -0.00000000 NiMoCrFe_S5_021_seed3      -1.97996700        1        1
Ni     -94.38747173      -0.00509226      -0.00000000 NiMoCrFe_S5_021_seed3       0.00000000        0        0
Cr     -86.64459173       0.00509226      -0.00000000 NiMoCrFe_S5_021_seed3       0.00000000        0        0
Ni     -99.01898075      -2.36834816      -1.76000000 NiMoCrFe_S5_021_seed3       0.00000000        0        0
Mo     -91.29121487      -2.36267151      -1.76000000 NiMoCrFe_S5_021_seed3       0.00000000        0        0
Ni     -83.53570547      -2.36571763      -1.76000000 NiMoCrFe_S5_021_seed3       0.00000000        0        0
Ni     -95.94261719      -0.78872286      -1.76000000 NiMoCrFe_S5_021_seed3       0.00000000        0        0
Fe     -88.19294311      -0.78327136      -1.76000000 NiMoCrFe_S5_021_seed3       0.00000000        0        0
Ni     -80.34784733      -0.80730195      -1.76000000 NiMoCrFe_S5_021_seed3      -1.37631200        1        0
Ni     -98.28548225       0.00638148      -1.76000000 NiMoCrFe_S5_021_seed3       0.00000000        0        0
Ni     -90.51603173       0.00000000      -1.76000000 NiMoCrFe_S5_021_seed3       0.00000000        0        0
Ni     -82.74658121      -0.00638148      -1.76000000 NiMoCrFe_S5_021_seed3       0.00000000        0        0
Mo     -95.16397428      -2.36492959      -0.00000000 NiMoCrFe_S5_021_seed3       0.00000000        0        0
Fe     -87.41715697      -2.35689535      -0.00000000 NiMoCrFe_S5_021_seed3       0.00000000        0        0
Ni     -79.80510840      -2.38181110      -0.00000000 NiMoCrFe_S5_021_seed3      -1.44631200        1        0
Ni     -99.83824749      -0.74628196      -0.00000000 NiMoCrFe_S5_021_seed3      -1.03723200        1        0
Ni     -92.06429434      -0.79030318      -0.00000000 NiMoCrFe_S5_021_seed3       0.00000000        0        0
Ni     -84.32128036      -0.78349434      -0.00000000 NiMoCrFe_S5_021_seed3       0.00000000        0        0
Ni     -96.71078310      -3.15198530      -1.76000000 NiMoCrFe_S5_021_seed3       0.00000000        0        0
Mo     -88.96776911      -3.14517646      -1.76000000 NiMoCrFe_S5_021_seed3       0.00000000        0        0
Ni     -81.19381597      -3.18919768      -1.76000000 NiMoCrFe_S5_021_seed3      -1.29356000        1        0
Ni    -101.22695506      -1.55366854      -1.76000000 NiMoCrFe_S5_021_seed3      -1.84295700        1        1
Ni     -93.61490649      -1.57858429      -1.76000000 NiMoCrFe_S5_021_seed3       0.00000000        0        0
Ni     -85.86808917      -1.57055005      -1.76000000 NiMoCrFe_S5_021_seed3       0.00000000        0        0
Mo     -77.06870959      -0.80694054      -1.76000000 NiMoCrFe_S5_021_seed3       0.00000000        0        0
Ni     -69.19580674      -0.77997460      -1.76000000 NiMoCrFe_S5_021_seed3       0.00000000        0        0
Ni     -61.38003842      -0.78579651      -1.76000000 NiMoCrFe_S5_021_seed3       0.00000000        0        0
Ni     -53.52214389      -0.78706552      -1.76000000 NiMoCrFe_S5_021_seed3       0.00000000        0        0
Ni     -45.65156116      -0.78709580      -1.76000000 NiMoCrFe_S5_021_seed3       0.00000000        0        0
Ni     -37.78060477      -0.78709594      -1.76000000 NiMoCrFe_S5_021_seed3       0.00000000        0        0
Ni     -29.90966339      -0.78709706      -1.76000000 NiMoCrFe_S5_021_seed3       0.00000000        0        0
Mo     -22.04074162      -0.78727425      -1.76000000 NiMoCrFe_S5_021_seed3       0.00000000        0        0
Ni     -14.19773857      -0.79019384      -1.76000000 NiMoCrFe_S5_021_seed3       0.00000000        0        0
Ni      -6.39440802      -0.79036345      -1.76000000 NiMoCrFe_S5_021_seed3       0.00000000        0        0
Ni     -73.87450081      -2.36470172      -1.76000000 NiMoCrFe_S5_021_seed3       0.00000000        0        0
Ni     -66.07520422      -2.35684258      -1.76000000 NiMoCrFe_S5_021_seed3       0.00000000        0        0
Ni     -58.24089081      -2.36090943      -1.76000000 NiMoCrFe_S5_021_seed3       0.00000000        0        0
Ni     -50.37408761      -2.36128415      -1.76000000 NiMoCrFe_S5_021_seed3       0.00000000        0        0
Ni     -42.50317956      -2.36128776      -1.76000000 NiMoCrFe_S5_021_seed3       0.00000000        0        0
Ni     -34.63222203      -2.36128784      -1.76000000 NiMoCrFe_S5_021_seed3       0.00000000        0        0
Ni     -26.76140607      -2.36129878      -1.76000000 NiMoCrFe_S5_021_seed3       0.00000000        0        0
Ni     -18.89818089      -2.36202534      -1.76000000 NiMoCrFe_S5_021_seed3       0.00000000        0        0
Mo     -11.07228666      -2.36721621      -1.76000000 NiMoCrFe_S5_021_seed3       0.00000000        0        0
Mo      -3.30869562      -2.36886856      -1.76000000 NiMoCrFe_S5_021_seed3       0.00000000        0        0
Ni     -78.70871890       0.01198342      -0.00000000 NiMoCrFe_S5_021_seed3      -1.25969700        1        0
Ni     -70.75281085       0.00748857      -0.00000000 NiMoCrFe_S5_021_seed3       0.00000000        0        0
Ni     -62.94670336       0.00210653      -0.00000000 NiMoCrFe_S5_021_seed3       0.00000000        0        0
Mo     -55.09579383       0.00007700      -0.00000000 NiMoCrFe_S5_021_seed3       0.00000000        0        0
Ni     -47.22574908       0.00000036      -0.00000000 NiMoCrFe_S5_021_seed3       0.00000000        0        0
Cr     -39.35479640       0.00000000      -0.00000000 NiMoCrFe_S5_021_seed3       0.00000000        0        0
Ni     -31.48384373      -0.00000036      -0.00000000 NiMoCrFe_S5_021_seed3       0.00000000        0        0
Ni     -23.61379897      -0.00007700      -0.00000000 NiMoCrFe_S5_021_seed3       0.00000000        0        0
Ni     -15.76288945      -0.00210653      -0.00000000 NiMoCrFe_S5_021_seed3       0.00000000        0        0
Ni      -7.95678196      -0.00748857      -0.00000000 NiMoCrFe_S5_021_seed3       0.00000000        0        0
Ni     -75.40089718      -1.56661108      -0.00000000 NiMoCrFe_S5_021_seed3       0.00000000        0        0
Ni     -67.63730615      -1.56826343      -0.00000000 NiMoCrFe_S5_021_seed3       0.00000000        0        0
Ni     -59.81141192      -1.57345430      -0.00000000 NiMoCrFe_S5_021_seed3       0.00000000        0        0
Ni     -51.94818674      -1.57418086      -0.00000000 NiMoCrFe_S5_021_seed3       0.00000000        0        0
Cr     -44.07737078      -1.57419180      -0.00000000 NiMoCrFe_S5_021_seed3       0.00000000        0        0
Fe     -36.20641324      -1.57419188      -0.00000000 NiMoCrFe_S5_021_seed3       0.00000000        0        0
Ni     -28.33550520      -1.57419549      -0.00000000 NiMoCrFe_S5_021_seed3       0.00000000        0        0
Ni     -20.46870199      -1.57457021      -0.00000000 NiMoCrFe_S5_021_seed3       0.00000000        0        0
Ni     -12.63438859      -1.57863706      -0.00000000 NiMoCrFe_S5_021_seed3       0.00000000        0        0
Ni      -4.83509200      -1.57077792      -0.00000000 NiMoCrFe_S5_021_seed3       0.00000000        0        0
Ni     -72.31518479      -3.14511619      -0.00000000 NiMoCrFe_S5_021_seed3       0.00000000        0        0
Mo     -64.51185424      -3.14528580      -0.00000000 NiMoCrFe_S5_021_seed3       0.00000000        0        0
Ni     -56.66885119      -3.14820539      -0.00000000 NiMoCrFe_S5_021_seed3       0.00000000        0        0
Ni     -48.79992942      -3.14838258      -0.00000000 NiMoCrFe_S5_021_seed3       0.00000000        0        0
Ni     -40.92898804      -3.14838370      -0.00000000 NiMoCrFe_S5_021_seed3       0.00000000        0        0
Ni     -33.05803165      -3.14838384      -0.00000000 NiMoCrFe_S5_021_seed3       0.00000000        0        0
Cr     -25.18744892      -3.14841412      -0.00000000 NiMoCrFe_S5_021_seed3       0.00000000        0        0
Ni     -17.32955438      -3.14968313      -0.00000000 NiMoCrFe_S5_021_seed3       0.00000000        0        0
Ni      -9.51378607      -3.15550504      -0.00000000 NiMoCrFe_S5_021_seed3       0.00000000        0        0
Ni      -1.64088322      -3.12853910      -0.00000000 NiMoCrFe_S5_021_seed3      -1.75606700        1        1
Ni     -74.66571632      -0.00561005      -1.76000000 NiMoCrFe_S5_021_seed3       0.00000000        0        0
Ni     -66.85646447       0.00497554      -1.76000000 NiMoCrFe_S5_021_seed3       0.00000000        0        0
Mo     -59.02637329       0.00053323      -1.76000000 NiMoCrFe_S5_021_seed3       0.00000000        0        0
Cr     -51.16114832       0.00000638      -1.76000000 NiMoCrFe_S5_021_seed3       0.00000000        0        0
Ni     -43.29027523       0.00000004      -1.76000000 NiMoCrFe_S5_021_seed3       0.00000000        0        0
Fe     -35.41931758      -0.00000004      -1.76000000 NiMoCrFe_S5_021_seed3       0.00000000        0        0
Mo     -27.54844449      -0.00000638      -1.76000000 NiMoCrFe_S5_021_seed3       0.00000000        0        0
Ni     -19.68321952      -0.00053323      -1.76000000 NiMoCrFe_S5_021_seed3       0.00000000        0        0
Cr     -11.85312834      -0.00497554      -1.76000000 NiMoCrFe_S5_021_seed3       0.00000000        0        0
Ni      -4.04387649       0.00561005      -1.76000000 NiMoCrFe_S5_021_seed3       0.00000000        0        0
Ni     -71.53308978      -1.56854538      -1.76000000 NiMoCrFe_S5_021_seed3       0.00000000        0        0
Ni     -63.72944384      -1.57161596      -1.76000000 NiMoCrFe_S5_021_seed3       0.00000000        0        0
Ni     -55.88242044      -1.57407356      -1.76000000 NiMoCrFe_S5_021_seed3       0.00000000        0        0
Ni     -48.01284078      -1.57419122      -1.76000000 NiMoCrFe_S5_021_seed3       0.00000000        0        0
Cr     -40.14189223      -1.57419185      -1.76000000 NiMoCrFe_S5_021_seed3       0.00000000        0        0
Ni     -32.27093718      -1.57419207      -1.76000000 NiMoCrFe_S5_021_seed3       0.00000000        0        0
Ni     -24.40057094      -1.57424087      -1.76000000 NiMoCrFe_S5_021_seed3       0.00000000        0        0
Ni     -16.54598334      -1.57587304      -1.76000000 NiMoCrFe_S5_021_seed3       0.00000000        0        0
Ni      -8.73356633      -1.58145705      -1.76000000 NiMoCrFe_S5_021_seed3       0.00000000        0        0
Ni      -1.09856287      -1.55406655      -1.76000000 NiMoCrFe_S5_021_seed3      -1.49200200        1        0
Ni     -76.22147516      -3.18885388      -1.76000000 NiMoCrFe_S5_021_seed3      -1.03844000        1        0
Ni     -68.41614100      -3.14135486      -1.76000000 NiMoCrFe_S5_021_seed3       0.00000000        0        0
Ni     -60.59596359      -3.14739015      -1.76000000 NiMoCrFe_S5_021_seed3       0.00000000        0        0
Ni     -52.73519090      -3.14836521      -1.76000000 NiMoCrFe_S5_021_seed3       0.00000000        0        0
Ni     -44.86446613      -3.14838363      -1.76000000 NiMoCrFe_S5_021_seed3       0.00000000        0        0
Ni     -36.99350898      -3.14838373      -1.76000000 NiMoCrFe_S5_021_seed3       0.00000000        0        0
Ni     -29.12257996      -3.14838575      -1.76000000 NiMoCrFe_S5_021_seed3       0.00000000        0        0
Ni     -21.25456414      -3.14864630      -1.76000000 NiMoCrFe_S5_021_seed3       0.00000000        0        0
Ni     -13.41571760      -3.15208440      -1.76000000 NiMoCrFe_S5_021_seed3       0.00000000        0        0
Ni      -5.62315349      -3.15323213      -1.76000000 NiMoCrFe_S5_021_seed3       0.00000000        0        0
Mo     -73.08643932      -0.78224751      -0.00000000 NiMoCrFe_S5_021_seed3       0.00000000        0        0
Ni     -65.29387520      -0.78339524      -0.00000000 NiMoCrFe_S5_021_seed3       0.00000000        0        0
Ni     -57.45502866      -0.78683334      -0.00000000 NiMoCrFe_S5_021_seed3       0.00000000        0        0
Ni     -49.58701285      -0.78709389      -0.00000000 NiMoCrFe_S5_021_seed3       0.00000000        0        0
Ni     -41.71608383      -0.78709591      -0.00000000 NiMoCrFe_S5_021_seed3       0.00000000        0        0
Ni     -33.84512668      -0.78709601      -0.00000000 NiMoCrFe_S5_021_seed3       0.00000000        0        0
Ni     -25.97440190      -0.78711443      -0.00000000 NiMoCrFe_S5_021_seed3       0.00000000        0        0
Cr     -18.11362921      -0.78808949      -0.00000000 NiMoCrFe_S5_021_seed3       0.00000000        0        0
Ni     -10.29345181      -0.79412478      -0.00000000 NiMoCrFe_S5_021_seed3       0.00000000        0        0
Ni      -2.48811765      -0.74662576      -0.00000000 NiMoCrFe_S5_021_seed3      -0.29238100        1        0
Ni     -77.61102994      -2.38141309      -0.00000000 NiMoCrFe_S5_021_seed3      -0.43993800        1        0
Ni     -69.97602648      -2.35402259      -0.00000000 NiMoCrFe_S5_021_seed3       0.00000000        0        0
Cr     -62.16360947      -2.35960660      -0.00000000 NiMoCrFe_S5_021_seed3       0.00000000        0        0
Ni     -54.30902187      -2.36123877      -0.00000000 NiMoCrFe_S5_021_seed3       0.00000000        0        0
Ni     -46.43865562      -2.36128757      -0.00000000 NiMoCrFe_S5_021_seed3       0.00000000        0        0
Ni     -38.56770058      -2.36128779      -0.00000000 NiMoCrFe_S5_021_seed3       0.00000000        0        0
Ni     -30.69675203      -2.36128842      -0.00000000 NiMoCrFe_S5_021_seed3       0.00000000        0        0
Cr     -22.82717237      -2.36140608      -0.00000000 NiMoCrFe_S5_021_seed3       0.00000000        0        0
Ni     -14.98014897      -2.36386368      -0.00000000 NiMoCrFe_S5_021_seed3       0.00000000        0        0
Ni      -7.17650302      -2.36693426      -0.00000000 NiMoCrFe_S5_021_seed3       0.00000000        0        0
130
Lattice="0.0 0.0 -3.52 2e-16 -3.9354796403996297 1.7600000000000007 -102.32247065039037 0.0 -6.3e-15" Properties=species:S:1:pos:R:3:frame_label:S:1:Eseg:R:1:probed:I:1:trap:I:1 pbc="T T T"
Ni    -100.68421613      -3.12817769      -0.00000000 NiMoCrFe_S5_021_seed4      -2.13229200        1        1
Ni     -92.83912035      -3.15220828      -0.00000000 NiMoCrFe_S5_021_seed4       0.00000000        0        0
Ni     -85.08944627      -3.14675678      -0.00000000 NiMoCrFe_S5_021_seed4       0.00000000        0        0
Ni     -97.49635799      -1.56976201      -0.00000000 NiMoCrFe_S5_021_seed4       0.00000000        0        0
Ni     -89.74084859      -1.57280813      -0.00000000 NiMoCrFe_S5_021_seed4       0.00000000        0        0
Ni     -82.01308271      -1.56713148      -0.00000000 NiMoCrFe_S5_021_seed4       0.00000000        0        0
Ni    -102.32334456      -0.01198342      -0.00000000 NiMoCrFe_S5_021_seed4      -2.66211600        1        1
Cr     -94.38747173      -0.00509226      -0.00000000 NiMoCrFe_S5_021_seed4       0.00000000        0        0
Mo     -86.64459173       0.00509226      -0.00000000 NiMoCrFe_S5_021_seed4       0.00000000        0        0
Ni     -99.01898075      -2.36834816      -1.76000000 NiMoCrFe_S5_021_seed4       0.00000000        0        0
Ni     -91.29121487      -2.36267151      -1.76000000 NiMoCrFe_S5_021_seed4       0.00000000        0        0
Ni     -83.53570547      -2.36571763      -1.76000000 NiMoCrFe_S5_021_seed4       0.00000000        0        0
Ni     -95.94261719      -0.78872286      -1.76000000 NiMoCrFe_S5_021_seed4       0.00000000        0        0
Ni     -88.19294311      -0.78327136      -1.76000000 NiMoCrFe_S5_021_seed4       0.00000000        0        0
Ni     -80.34784733      -0.80730195      -1.76000000 NiMoCrFe_S5_021_seed4       0.15630100        1        0
Ni     -98.28548225       0.00638148      -1.76000000 NiMoCrFe_S5_021_seed4       0.00000000        0        0
Ni     -90.51603173       0.00000000      -1.76000000 NiMoCrFe_S5_021_seed4       0.00000000        0        0
Fe     -82.74658121      -0.00638148      -1.76000000 NiMoCrFe_S5_021_seed4       0.00000000        0        0
Ni     -95.16397428      -2.36492959      -0.00000000 NiMoCrFe_S5_021_seed4       0.00000000        0        0
Ni     -87.41715697      -2.35689535      -0.00000000 NiMoCrFe_S5_021_seed4       0.00000000        0        0
Mo     -79.80510840      -2.38181110      -0.00000000 NiMoCrFe_S5_021_seed4       0.00000000        0        0
Ni     -99.83824749      -0.74628196      -0.00000000 NiMoCrFe_S5_021_seed4      -1.79434300        1        1
Ni     -92.06429434      -0.79030318      -0.00000000 NiMoCrFe_S5_021_seed4       0.00000000        0        0
Ni     -84.32128036      -0.78349434      -0.00000000 NiMoCrFe_S5_021_seed4       0.00000000        0        0
Ni     -96.71078310      -3.15198530      -1.76000000 NiMoCrFe_S5_021_seed4       0.00000000        0        0
Ni     -88.96776911      -3.14517646      -1.76000000 NiMoCrFe_S5_021_seed4       0.00000000        0        0
Mo     -81.19381597      -3.18919768      -1.76000000 NiMoCrFe_S5_021_seed4       0.00000000        0        0
Ni    -101.22695506      -1.55366854      -1.76000000 NiMoCrFe_S5_021_seed4      -2.43964700        1        1
Ni     -93.61490649      -1.57858429      -1.76000000 NiMoCrFe_S5_021_seed4       0.00000000        0        0
Ni     -85.86808917      -1.57055005      -1.76000000 NiMoCrFe_S5_021_seed4       0.00000000        0        0
Ni     -77.06870959      -0.80694054      -1.76000000 NiMoCrFe_S5_021_seed4      -0.55413700        1        0
Cr     -69.19580674      -0.77997460      -1.76000000 NiMoCrFe_S5_021_seed4       0.00000000        0        0
Ni     -61.38003842      -0.78579651      -1.76000000 NiMoCrFe_S5_021_seed4       0.00000000        0        0
Ni     -53.52214389      -0.78706552      -1.76000000 NiMoCrFe_S5_021_seed4       0.00000000        0        0
Ni     -45.65156116      -0.78709580      -1.76000000 NiMoCrFe_S5_021_seed4       0.00000000        0        0
Ni     -37.78060477      -0.78709594      -1.76000000 NiMoCrFe_S5_021_seed4       0.00000000        0        0
Ni     -29.90966339      -0.78709706      -1.76000000 NiMoCrFe_S5_021_seed4       0.00000000        0        0
Ni     -22.04074162      -0.78727425      -1.76000000 NiMoCrFe_S5_021_seed4       0.00000000        0        0
Ni     -14.19773857      -0.79019384      -1.76000000 NiMoCrFe_S5_021_seed4       0.00000000        0        0
Ni      -6.39440802      -0.79036345      -1.76000000 NiMoCrFe_S5_021_seed4       0.00000000        0        0
Ni     -73.87450081      -2.36470172      -1.76000000 NiMoCrFe_S5_021_seed4       0.00000000        0        0
Mo     -66.07520422      -2.35684258      -1.76000000 NiMoCrFe_S5_021_seed4       0.00000000        0        0
Cr     -58.24089081      -2.36090943      -1.76000000 NiMoCrFe_S5_021_seed4       0.00000000        0        0
Ni     -50.37408761      -2.36128415      -1.76000000 NiMoCrFe_S5_021_seed4       0.00000000        0        0
Ni     -42.50317956      -2.36128776      -1.76000000 NiMoCrFe_S5_021_seed4       0.00000000        0        0
Ni     -34.63222203      -2.36128784      -1.76000000 NiMoCrFe_S5_021_seed4       0.00000000        0        0
Ni     -26.76140607      -2.36129878      -1.76000000 NiMoCrFe_S5_021_seed4       0.00000000        0        0
Ni     -18.89818089      -2.36202534      -1.76000000 NiMoCrFe_S5_021_seed4       0.00000000        0        0
Ni     -11.07228666      -2.36721621      -1.76000000 NiMoCrFe_S5_021_seed4       0.00000000        0        0
Ni      -3.30869562      -2.36886856      -1.76000000 NiMoCrFe_S5_021_seed4       0.00000000        0        0
Cr     -78.70871890       0.01198342      -0.00000000 NiMoCrFe_S5_021_seed4       0.00000000        0        0
Ni     -70.75281085       0.00748857      -0.00000000 NiMoCrFe_S5_021_seed4       0.00000000        0        0
Ni     -62.94670336       0.00210653      -0.00000000 NiMoCrFe_S5_021_seed4       0.00000000        0        0
Ni     -55.09579383       0.00007700      -0.00000000 NiMoCrFe_S5_021_seed4       0.00000000        0        0
Cr     -47.22574908       0.00000036      -0.00000000 NiMoCrFe_S5_021_seed4       0.00000000        0        0
Mo     -39.35479640       0.00000000      -0.00000000 NiMoCrFe_S5_021_seed4       0.00000000        0        0
Ni     -31.48384373      -0.00000036      -0.00000000 NiMoCrFe_S5_021_seed4       0.00000000        0        0
Ni     -23.61379897      -0.00007700      -0.00000000 NiMoCrFe_S5_021_seed4       0.00000000        0        0
Ni     -15.76288945      -0.00210653      -0.00000000 NiMoCrFe_S5_021_seed4       0.00000000        0        0
Ni      -7.95678196      -0.00748857      -0.00000000 NiMoCrFe_S5_021_seed4       0.00000000        0        0
Mo     -75.40089718      -1.56661108      -0.00000000 NiMoCrFe_S5_021_seed4       0.00000000        0        0
Ni     -67.63730615      -1.56826343      -0.00000000 NiMoCrFe_S5_021_seed4       0.00000000        0        0
Ni     -59.81141192      -1.57345430      -0.00000000 NiMoCrFe_S5_021_seed4       0.00000000        0        0
Ni     -51.94818674      -1.57418086      -0.00000000 NiMoCrFe_S5_021_seed4       0.00000000        0        0
Ni     -44.07737078      -1.57419180      -0.00000000 NiMoCrFe_S5_021_seed4       0.00000000        0        0
Ni     -36.20641324      -1.57419188      -0.00000000 NiMoCrFe_S5_021_seed4       0.00000000        0        0
Cr     -28.33550520      -1.57419549      -0.00000000 NiMoCrFe_S5_021_seed4       0.00000000        0        0
Mo     -20.46870199      -1.57457021      -0.00000000 NiMoCrFe_S5_021_seed4       0.00000000        0        0
Fe     -12.63438859      -1.57863706      -0.00000000 NiMoCrFe_S5_021_seed4       0.00000000        0        0
Ni      -4.83509200      -1.57077792      -0.00000000 NiMoCrFe_S5_021_seed4       0.00000000        0        0
Ni     -72.31518479      -3.14511619      -0.00000000 NiMoCrFe_S5_021_seed4       0.00000000        0        0
Ni     -64.51185424      -3.14528580      -0.00000000 NiMoCrFe_S5_021_seed4       0.00000000        0        0
Cr     -56.66885119      -3.14820539      -0.00000000 NiMoCrFe_S5_021_seed4       0.00000000        0        0
Ni     -48.79992942      -3.14838258      -0.00000000 NiMoCrFe_S5_021_seed4       0.00000000        0        0
Mo     -40.92898804      -3.14838370      -0.00000000 NiMoCrFe_S5_021_seed4       0.00000000        0        0
Ni     -33.05803165      -3.14838384      -0.00000000 NiMoCrFe_S5_021_seed4       0.00000000        0        0
Ni     -25.18744892      -3.14841412      -0.00000000 NiMoCrFe_S5_021_seed4       0.00000000        0        0
Ni     -17.32955438      -3.14968313      -0.00000000 NiMoCrFe_S5_021_seed4       0.00000000        0        0
Ni      -9.51378607      -3.15550504      -0.00000000 NiMoCrFe_S5_021_seed4       0.00000000        0        0
Ni      -1.64088322      -3.12853910      -0.00000000 NiMoCrFe_S5_021_seed4      -2.14763800        1        1
Cr     -74.66571632      -0.00561005      -1.76000000 NiMoCrFe_S5_021_seed4       0.00000000        0        0
Ni     -66.85646447       0.00497554      -1.76000000 NiMoCrFe_S5_021_seed4       0.00000000        0        0
Ni     -59.02637329       0.00053323      -1.76000000 NiMoCrFe_S5_021_seed4       0.00000000        0        0
Ni     -51.16114832       0.00000638      -1.76000000 NiMoCrFe_S5_021_seed4       0.00000000        0        0
Ni     -43.29027523       0.00000004      -1.76000000 NiMoCrFe_S5_021_seed4       0.00000000        0        0
Ni     -35.41931758      -0.00000004      -1.76000000 NiMoCrFe_S5_021_seed4       0.00000000        0        0
Ni     -27.54844449      -0.00000638      -1.76000000 NiMoCrFe_S5_021_seed4       0.00000000        0        0
Ni     -19.68321952      -0.00053323      -1.76000000 NiMoCrFe_S5_021_seed4       0.00000000        0        0
Ni     -11.85312834      -0.00497554      -1.76000000 NiMoCrFe_S5_021_seed4       0.00000000        0        0
Ni      -4.04387649       0.00561005      -1.76000000 NiMoCrFe_S5_021_seed4       0.00000000        0        0
Ni     -71.53308978      -1.56854538      -1.76000000 NiMoCrFe_S5_021_seed4       0.00000000        0        0
Ni     -63.72944384      -1.57161596      -1.76000000 NiMoCrFe_S5_021_seed4       0.00000000        0        0
Mo     -55.88242044      -1.57407356      -1.76000000 NiMoCrFe_S5_021_seed4       0.00000000        0        0
Mo     -48.01284078      -1.57419122      -1.76000000 NiMoCrFe_S5_021_seed4       0.00000000        0        0
Ni     -40.14189223      -1.57419185      -1.76000000 NiMoCrFe_S5_021_seed4       0.00000000        0        0
Ni     -32.27093718      -1.57419207      -1.76000000 NiMoCrFe_S5_021_seed4       0.00000000        0        0
Ni     -24.40057094      -1.57424087      -1.76000000 NiMoCrFe_S5_021_seed4       0.00000000        0        0
Ni     -16.54598334      -1.57587304      -1.76000000 NiMoCrFe_S5_021_seed4       0.00000000        0        0
Mo      -8.73356633      -1.58145705      -1.76000000 NiMoCrFe_S5_021_seed4       0.00000000        0        0
Ni      -1.09856287      -1.55406655      -1.76000000 NiMoCrFe_S5_021_seed4      -2.45661700        1        1
Cr     -76.22147516      -3.18885388      -1.76000000 NiMoCrFe_S5_021_seed4       0.00000000        0        0
Ni     -68.41614100      -3.14135486      -1.76000000 NiMoCrFe_S5_021_seed4       0.00000000        0        0
Fe     -60.59596359      -3.14739015      -1.76000000 NiMoCrFe_S5_021_seed4       0.00000000        0        0
Ni     -52.73519090      -3.14836521      -1.76000000 NiMoCrFe_S5_021_seed4       0.00000000        0        0
Fe     -44.86446613      -3.14838363      -1.76000000 NiMoCrFe_S5_021_seed4       0.00000000        0        0
Cr     -36.99350898      -3.14838373      -1.76000000 NiMoCrFe_S5_021_seed4       0.00000000        0        0
Ni     -29.12257996      -3.14838575      -1.76000000 NiMoCrFe_S5_021_seed4       0.00000000        0        0
Ni     -21.25456414      -3.14864630      -1.76000000 NiMoCrFe_S5_021_seed4       0.00000000        0        0
Mo     -13.41571760      -3.15208440      -1.76000000 NiMoCrFe_S5_021_seed4       0.00000000        0        0
Ni      -5.62315349      -3.15323213      -1.76000000 NiMoCrFe_S5_021_seed4       0.00000000        0        0
Ni     -73.08643932      -0.78224751      -0.00000000 NiMoCrFe_S5_021_seed4       0.00000000        0        0
Mo     -65.29387520      -0.78339524      -0.00000000 NiMoCrFe_S5_021_seed4       0.00000000        0        0
Ni     -57.45502866      -0.78683334      -0.00000000 NiMoCrFe_S5_021_seed4       0.00000000        0        0
Fe     -49.58701285      -0.78709389      -0.00000000 NiMoCrFe_S5_021_seed4       0.00000000        0        0
Ni     -41.71608383      -0.78709591      -0.00000000 NiMoCrFe_S5_021_seed4       0.00000000        0        0
Ni     -33.84512668      -0.78709601      -0.00000000 NiMoCrFe_S5_021_seed4       0.00000000        0        0
Ni     -25.97440190      -0.78711443      -0.00000000 NiMoCrFe_S5_021_seed4       0.00000000        0        0
Ni     -18.11362921      -0.78808949      -0.00000000 NiMoCrFe_S5_021_seed4       0.00000000        0        0
Ni     -10.29345181      -0.79412478      -0.00000000 NiMoCrFe_S5_021_seed4       0.00000000        0        0
Ni      -2.48811765      -0.74662576      -0.00000000 NiMoCrFe_S5_021_seed4      -1.77422500        1        1
Ni     -77.61102994      -2.38141309      -0.00000000 NiMoCrFe_S5_021_seed4      -0.53097100        1        0
Ni     -69.97602648      -2.35402259      -0.00000000 NiMoCrFe_S5_021_seed4       0.00000000        0        0
Ni     -62.16360947      -2.35960660      -0.00000000 NiMoCrFe_S5_021_seed4       0.00000000        0        0
Ni     -54.30902187      -2.36123877      -0.00000000 NiMoCrFe_S5_021_seed4       0.00000000        0        0
Ni     -46.43865562      -2.36128757      -0.00000000 NiMoCrFe_S5_021_seed4       0.00000000        0        0
Ni     -38.56770058      -2.36128779      -0.00000000 NiMoCrFe_S5_021_seed4       0.00000000        0        0
Ni     -30.69675203      -2.36128842      -0.00000000 NiMoCrFe_S5_021_seed4       0.00000000        0        0
Ni     -22.82717237      -2.36140608      -0.00000000 NiMoCrFe_S5_021_seed4       0.00000000        0        0
Ni     -14.98014897      -2.36386368      -0.00000000 NiMoCrFe_S5_021_seed4       0.00000000        0        0
Ni      -7.17650302      -2.36693426      -0.00000000 NiMoCrFe_S5_021_seed4       0.00000000        0        0
